C    O    Pt
   1.00000000000000     
   7.2969551199999998  -4.2128990000000002   0.0000000000000000
   0.0000000000000000   8.4257980000000003   0.0000000000000000
   0.0000000000000000   0.0000000000000000  21.8796350000000004
C    O    Pt
1  2  36  
Selective dynamics
Direct
  0.6989420162626064  0.4387840232844090  0.4791995436780529  T  T  T
  0.9022273627919887  0.3838290911271781  0.4692593070503157  T  T  T
  0.6708054711364754  0.4656399058158310  0.5290880755005418  T  T  T
  0.9867550000000020  0.3285910000000030  0.0743760000000009  F  F  F
  0.3200879999999980  0.3285910000000030  0.0743760000000009  F  F  F
  0.6534219999999989  0.3285910000000030  0.0743760000000009  F  F  F
  0.9867550000000020  0.6619249999999970  0.0743760000000009  F  F  F
  0.3200879999999980  0.6619249999999970  0.0743760000000009  F  F  F
  0.6534219999999989  0.6619249999999970  0.0743760000000009  F  F  F
  0.3200879999999980  0.9952580000000000  0.0743760000000009  F  F  F
  0.6534219999999989  0.9952580000000000  0.0743760000000009  F  F  F
  0.9867550000000020  0.9952580000000000  0.0743760000000009  F  F  F
  0.2089769999999970  0.1063690000000010  0.1791860000000010  F  F  F
  0.5423109999999980  0.1063690000000010  0.1791860000000010  F  F  F
  0.8756440000000010  0.1063690000000010  0.1791860000000010  F  F  F
  0.2089769999999970  0.4397030000000020  0.1791860000000010  F  F  F
  0.5423109999999980  0.4397030000000020  0.1791860000000010  F  F  F
  0.8756440000000010  0.4397030000000020  0.1791860000000010  F  F  F
  0.2089769999999970  0.7730359999999979  0.1791860000000010  F  F  F
  0.5423109999999980  0.7730359999999979  0.1791860000000010  F  F  F
  0.8756440000000010  0.7730359999999979  0.1791860000000010  F  F  F
  0.0931505786178543  0.5516220674496174  0.2809257006483346  T  T  T
  0.4354072730298941  0.8884791712000955  0.2781424357015413  T  T  T
  0.7679957199415951  0.2223345975694266  0.2872044220506785  T  T  T
  0.0961579333691101  0.2177347073615943  0.2849985419000542  T  T  T
  0.4313531379287728  0.2157365128045902  0.2790260734208580  T  T  T
  0.1024004534216314  0.8830306644776669  0.2859998291590557  T  T  T
  0.7619111752639425  0.8797242346805491  0.2808528570151713  T  T  T
  0.4365996811883248  0.5461559584917791  0.2883324206529773  T  T  T
  0.7615466860814480  0.5530949104564740  0.2883969183554596  T  T  T
  0.3269045801407820  0.6620470597057376  0.3884724556894789  T  T  T
  0.6529724155574138  0.9890186243047219  0.3836287828267406  T  T  T
  0.3253292592639732  0.3283955249910527  0.3835370791512818  T  T  T
  0.9903155334264714  0.9878763574873425  0.3858608618920186  T  T  T
  0.3181715769520303  0.9925120699011540  0.3855834258743523  T  T  T
  0.6420027362647477  0.3205716667659786  0.3911826671888459  T  T  T
  0.9982649748121671  0.6633109868434853  0.3835273764610762  T  T  T
  0.9922576186146986  0.3159171266404694  0.3952707561648903  T  T  T
  0.6560831909877924  0.6679708520341449  0.3854137361629248  T  T  T
