C    O    Pt                            
   1.00000000000000     
     7.2969551199999998   -4.2128990000000002    0.0000000000000000
     0.0000000000000000    8.4257980000000003    0.0000000000000000
     0.0000000000000000    0.0000000000000000   21.8796350000000004
   C    O    Pt
     1     2    36
Selective dynamics
Direct
  0.6982966475749197  0.4227149406381534  0.4735561723225033   T   T   T
  0.9096291632136402  0.3941146802712062  0.4665618678615610   T   T   T
  0.6783956624278001  0.4663648854353207  0.5223768380302829   T   T   T
  0.9867550000000023  0.3285910000000031  0.0743760000000009   F   F   F
  0.3200879999999984  0.3285910000000030  0.0743760000000009   F   F   F
  0.6534219999999991  0.3285910000000031  0.0743760000000009   F   F   F
  0.9867550000000023  0.6619249999999965  0.0743760000000009   F   F   F
  0.3200879999999984  0.6619249999999965  0.0743760000000009   F   F   F
  0.6534219999999991  0.6619249999999965  0.0743760000000009   F   F   F
  0.3200879999999984  0.9952579999999998  0.0743760000000009   F   F   F
  0.6534219999999991  0.9952579999999998  0.0743760000000009   F   F   F
  0.9867550000000023  0.9952579999999994  0.0743760000000009   F   F   F
  0.2089769999999972  0.1063690000000008  0.1791860000000014   F   F   F
  0.5423109999999980  0.1063690000000008  0.1791860000000014   F   F   F
  0.8756440000000012  0.1063690000000008  0.1791860000000014   F   F   F
  0.2089769999999972  0.4397030000000013  0.1791860000000014   F   F   F
  0.5423109999999980  0.4397030000000015  0.1791860000000014   F   F   F
  0.8756440000000012  0.4397030000000015  0.1791860000000014   F   F   F
  0.2089769999999972  0.7730359999999978  0.1791860000000014   F   F   F
  0.5423109999999980  0.7730359999999976  0.1791860000000014   F   F   F
  0.8756440000000012  0.7730359999999979  0.1791860000000014   F   F   F
  0.0997050693088454  0.5478138458203655  0.2829464108437399   T   T   T
  0.4358785959303021  0.8861029510031512  0.2836295063347920   T   T   T
  0.7655266375687109  0.2174964567679800  0.2861436757488787   T   T   T
  0.0946903763541260  0.2175361923166540  0.2844799797807758   T   T   T
  0.4332989915022277  0.2162544315530516  0.2832437914459713   T   T   T
  0.1000660864056279  0.8835905150173681  0.2815372031241684   T   T   T
  0.7669815059078051  0.8835078930498932  0.2844398486913889   T   T   T
  0.4328242739083501  0.5503148087553004  0.2836259744402901   T   T   T
  0.7647316741039898  0.5473158125436467  0.2831737600601580   T   T   T
  0.3252738744446654  0.6635426200277872  0.3874089064495857   T   T   T
  0.6552500631689205  0.9935665080726882  0.3899115809563657   T   T   T
  0.3181160861543996  0.3216391080120095  0.3868709305754705   T   T   T
  0.9887526532554732  0.9917533541961302  0.3894442814063733   T   T   T
  0.3205482365733487  0.9900855175840897  0.3886196668720890   T   T   T
  0.6382311050452363  0.3242094699356217  0.3928572658497729   T   T   T
  0.9954378534320536  0.6699943663338932  0.3842862685051169   T   T   T
  0.9969305175883688  0.3226505080017408  0.3947733643531389   T   T   T
  0.6554856753658728  0.6647196268183747  0.3885974052308003   T   T   T
 
  0.00000000E+00  0.00000000E+00  0.00000000E+00
  0.00000000E+00  0.00000000E+00  0.00000000E+00
  0.00000000E+00  0.00000000E+00  0.00000000E+00
  0.00000000E+00  0.00000000E+00  0.00000000E+00
  0.00000000E+00  0.00000000E+00  0.00000000E+00
  0.00000000E+00  0.00000000E+00  0.00000000E+00
  0.00000000E+00  0.00000000E+00  0.00000000E+00
  0.00000000E+00  0.00000000E+00  0.00000000E+00
  0.00000000E+00  0.00000000E+00  0.00000000E+00
  0.00000000E+00  0.00000000E+00  0.00000000E+00
  0.00000000E+00  0.00000000E+00  0.00000000E+00
  0.00000000E+00  0.00000000E+00  0.00000000E+00
  0.00000000E+00  0.00000000E+00  0.00000000E+00
  0.00000000E+00  0.00000000E+00  0.00000000E+00
  0.00000000E+00  0.00000000E+00  0.00000000E+00
  0.00000000E+00  0.00000000E+00  0.00000000E+00
  0.00000000E+00  0.00000000E+00  0.00000000E+00
  0.00000000E+00  0.00000000E+00  0.00000000E+00
  0.00000000E+00  0.00000000E+00  0.00000000E+00
  0.00000000E+00  0.00000000E+00  0.00000000E+00
  0.00000000E+00  0.00000000E+00  0.00000000E+00
  0.00000000E+00  0.00000000E+00  0.00000000E+00
  0.00000000E+00  0.00000000E+00  0.00000000E+00
  0.00000000E+00  0.00000000E+00  0.00000000E+00
  0.00000000E+00  0.00000000E+00  0.00000000E+00
  0.00000000E+00  0.00000000E+00  0.00000000E+00
  0.00000000E+00  0.00000000E+00  0.00000000E+00
  0.00000000E+00  0.00000000E+00  0.00000000E+00
  0.00000000E+00  0.00000000E+00  0.00000000E+00
  0.00000000E+00  0.00000000E+00  0.00000000E+00
  0.00000000E+00  0.00000000E+00  0.00000000E+00
  0.00000000E+00  0.00000000E+00  0.00000000E+00
  0.00000000E+00  0.00000000E+00  0.00000000E+00
  0.00000000E+00  0.00000000E+00  0.00000000E+00
  0.00000000E+00  0.00000000E+00  0.00000000E+00
  0.00000000E+00  0.00000000E+00  0.00000000E+00
  0.00000000E+00  0.00000000E+00  0.00000000E+00
  0.00000000E+00  0.00000000E+00  0.00000000E+00
  0.00000000E+00  0.00000000E+00  0.00000000E+00
