C    O    Pt
   1.00000000000000     
   7.2969551199999998  -4.2128990000000002   0.0000000000000000
   0.0000000000000000   8.4257980000000003   0.0000000000000000
   0.0000000000000000   0.0000000000000000  21.8796350000000004
C    O    Pt
1  2  36  
Selective dynamics
Direct
  0.7021507056526762  0.4352417209900217  0.4726051362936663  T  T  T
  0.9034027874275099  0.3870801944025584  0.4651304060556247  T  T  T
  0.6740141605265452  0.4620976035214437  0.5224936681161553  T  T  T
  0.9867550000000020  0.3285910000000030  0.0743760000000009  F  F  F
  0.3200879999999980  0.3285910000000030  0.0743760000000009  F  F  F
  0.6534219999999989  0.3285910000000030  0.0743760000000009  F  F  F
  0.9867550000000020  0.6619249999999970  0.0743760000000009  F  F  F
  0.3200879999999980  0.6619249999999970  0.0743760000000009  F  F  F
  0.6534219999999989  0.6619249999999970  0.0743760000000009  F  F  F
  0.3200879999999980  0.9952580000000000  0.0743760000000009  F  F  F
  0.6534219999999989  0.9952580000000000  0.0743760000000009  F  F  F
  0.9867550000000020  0.9952580000000000  0.0743760000000009  F  F  F
  0.2089769999999970  0.1063690000000010  0.1791860000000010  F  F  F
  0.5423109999999980  0.1063690000000010  0.1791860000000010  F  F  F
  0.8756440000000010  0.1063690000000010  0.1791860000000010  F  F  F
  0.2089769999999970  0.4397030000000020  0.1791860000000010  F  F  F
  0.5423109999999980  0.4397030000000020  0.1791860000000010  F  F  F
  0.8756440000000010  0.4397030000000020  0.1791860000000010  F  F  F
  0.2089769999999970  0.7730359999999979  0.1791860000000010  F  F  F
  0.5423109999999980  0.7730359999999979  0.1791860000000010  F  F  F
  0.8756440000000010  0.7730359999999979  0.1791860000000010  F  F  F
  0.1017450510984461  0.5526977587256426  0.2825941598532294  T  T  T
  0.4333320711213452  0.8858900238368650  0.2868671571826510  T  T  T
  0.7656091455716791  0.2190625394345007  0.2873750252961825  T  T  T
  0.1000008812201795  0.2171604366586165  0.2839065302073562  T  T  T
  0.4306442882137101  0.2211335009036385  0.2831479212975251  T  T  T
  0.1006205819218641  0.8798239966570330  0.2782727745065764  T  T  T
  0.7689694957206938  0.8777200642404162  0.2879874707373767  T  T  T
  0.4334244159790492  0.5473982065395644  0.2874521139267725  T  T  T
  0.7644838148277392  0.5482449492729246  0.2845859958783502  T  T  T
  0.3277701190614242  0.6656323038407563  0.3862581483973472  T  T  T
  0.6551828054663460  0.9942296524512616  0.3908677912741801  T  T  T
  0.3214759536370245  0.3237391566854874  0.3852729985263641  T  T  T
  0.9854802494900118  0.9900251388625126  0.3899647037284331  T  T  T
  0.3227068300825398  0.9868568450378156  0.3888512025982130  T  T  T
  0.6409870334210724  0.3227098918395326  0.3944672727590849  T  T  T
  0.9954927831462748  0.6717265448678128  0.3824736981884755  T  T  T
  0.9973640710871327  0.3243519310778770  0.3953464680195283  T  T  T
  0.6523366462462649  0.6623036693493172  0.3874824437920466  T  T  T
