C    O    Pt
   1.00000000000000     
   7.2969551199999998  -4.2128990000000002   0.0000000000000000
   0.0000000000000000   8.4257980000000003   0.0000000000000000
   0.0000000000000000   0.0000000000000000  21.8796350000000004
C    O    Pt
1  2  36  
Selective dynamics
Direct
  0.7021579394433670  0.4352082694221690  0.4753362913099720 T T T
  0.9064378650391800  0.3849810487254360  0.4648457343042690 T T T
  0.6740213943172360  0.4620641519535910  0.5252248231324610 T T T
  0.9867550000000020  0.3285910000000030  0.0743760000000009 F F F
  0.3200879999999980  0.3285910000000030  0.0743760000000009 F F F
  0.6534219999999989  0.3285910000000030  0.0743760000000009 F F F
  0.9867550000000020  0.6619249999999970  0.0743760000000009 F F F
  0.3200879999999980  0.6619249999999970  0.0743760000000009 F F F
  0.6534219999999989  0.6619249999999970  0.0743760000000009 F F F
  0.3200879999999980  0.9952580000000000  0.0743760000000009 F F F
  0.6534219999999989  0.9952580000000000  0.0743760000000009 F F F
  0.9867550000000020  0.9952580000000000  0.0743760000000009 F F F
  0.2089769999999970  0.1063690000000010  0.1791860000000010 F F F
  0.5423109999999980  0.1063690000000010  0.1791860000000010 F F F
  0.8756440000000010  0.1063690000000010  0.1791860000000010 F F F
  0.2089769999999970  0.4397030000000020  0.1791860000000010 F F F
  0.5423109999999980  0.4397030000000020  0.1791860000000010 F F F
  0.8756440000000010  0.4397030000000020  0.1791860000000010 F F F
  0.2089769999999970  0.7730359999999979  0.1791860000000010 F F F
  0.5423109999999980  0.7730359999999979  0.1791860000000010 F F F
  0.8756440000000010  0.7730359999999979  0.1791860000000010 F F F
  0.0975174818021358  0.5485486914942750  0.2830495155170070 T T T
  0.4311461405963400  0.8835494989466570  0.2823944628417080 T T T
  0.7638488174074070  0.2173867682130390  0.2840445324316720 T T T
  0.0958178017510747  0.2185160388935190  0.2842251136007410 T T T
  0.4335307506186230  0.2173242480621130  0.2836405816259600 T T T
  0.0978165793370920  0.8830025017465890  0.2825824299088920 T T T
  0.7645092421051700  0.8822800333496730  0.2831272718905070 T T T
  0.4326094253613630  0.5500749413653100  0.2833738580977250 T T T
  0.7645344508953900  0.5493477124263390  0.2838336043882560 T T T
  0.3237632424432210  0.6614138427578170  0.3864475003631820 T T T
  0.6523521542377180  0.9898328366516860  0.3864055920172190 T T T
  0.3221755389040270  0.3245876343910150  0.3873096745219870 T T T
  0.9887506133060741  0.9910723303210530  0.3879079660484310 T T T
  0.3209007806187640  0.9918308724612360  0.3878168173287260 T T T
  0.6429920585958731  0.3233846573038260  0.3924633063377600 T T T
  0.9947304702750300  0.6677204311990220  0.3868098228869950 T T T
  0.9940332733843250  0.3201667087450840  0.3915524325984880 T T T
  0.6560911532596660  0.6630565811647460  0.3898111002513080 T T T
