C    O    Pt                            
   1.00000000000000     
     7.2969551199999998   -4.2128990000000002    0.0000000000000000
     0.0000000000000000    8.4257980000000003    0.0000000000000000
     0.0000000000000000    0.0000000000000000   21.8796350000000004
   C    O    Pt
     1     2    36
Selective dynamics
Direct
  0.6958727001816143  0.4278667222615977  0.4759241640038079   T   T   T
  0.9088807944159814  0.3878128523189356  0.4630393668452933   T   T   T
  0.6746012568735898  0.4592988240298357  0.5252028193325492   T   T   T
  0.9867550000000023  0.3285910000000031  0.0743760000000009   F   F   F
  0.3200879999999984  0.3285910000000030  0.0743760000000009   F   F   F
  0.6534219999999991  0.3285910000000031  0.0743760000000009   F   F   F
  0.9867550000000023  0.6619249999999965  0.0743760000000009   F   F   F
  0.3200879999999984  0.6619249999999965  0.0743760000000009   F   F   F
  0.6534219999999991  0.6619249999999965  0.0743760000000009   F   F   F
  0.3200879999999984  0.9952579999999998  0.0743760000000009   F   F   F
  0.6534219999999991  0.9952579999999998  0.0743760000000009   F   F   F
  0.9867550000000023  0.9952579999999996  0.0743760000000009   F   F   F
  0.2089769999999972  0.1063690000000008  0.1791860000000014   F   F   F
  0.5423109999999980  0.1063690000000008  0.1791860000000014   F   F   F
  0.8756440000000012  0.1063690000000008  0.1791860000000014   F   F   F
  0.2089769999999972  0.4397030000000015  0.1791860000000014   F   F   F
  0.5423109999999980  0.4397030000000015  0.1791860000000014   F   F   F
  0.8756440000000012  0.4397030000000015  0.1791860000000014   F   F   F
  0.2089769999999972  0.7730359999999976  0.1791860000000014   F   F   F
  0.5423109999999980  0.7730359999999976  0.1791860000000014   F   F   F
  0.8756440000000012  0.7730359999999977  0.1791860000000014   F   F   F
  0.1003700724676807  0.5512061977798440  0.2840353464668040   T   T   T
  0.4285121523266627  0.8866445771718088  0.2832745226774379   T   T   T
  0.7659896877314684  0.2152853106246261  0.2832001233528645   T   T   T
  0.0950456966886689  0.2163812634569703  0.2842388442329626   T   T   T
  0.4352256314144826  0.2161377225726163  0.2830868337104892   T   T   T
  0.0958350352948422  0.8833291194131192  0.2860890367752596   T   T   T
  0.7617393242208077  0.8828017555180872  0.2820974720082143   T   T   T
  0.4304356275085179  0.5476496776385577  0.2808385340300445   T   T   T
  0.7652009711652054  0.5488957641029599  0.2845305096071179   T   T   T
  0.3250284479789894  0.6648419000386956  0.3867384375386180   T   T   T
  0.6544667896164142  0.9923186902974652  0.3893707667120906   T   T   T
  0.3239455742285666  0.3271856360161501  0.3845451438603161   T   T   T
  0.9890726890338353  0.9882218705956255  0.3885054854846130   T   T   T
  0.3230679749259215  0.9916630261026992  0.3901490899324968   T   T   T
  0.6454609539376067  0.3226949110148331  0.3940214625611198   T   T   T
  0.9960338657654257  0.6665319148534422  0.3909810683149696   T   T   T
  0.9956137186274723  0.3169233697600654  0.3917441282247955   T   T   T
  0.6550181672630011  0.6671632299528597  0.3884894998309454   T   T   T
 
  0.00000000E+00  0.00000000E+00  0.00000000E+00
  0.00000000E+00  0.00000000E+00  0.00000000E+00
  0.00000000E+00  0.00000000E+00  0.00000000E+00
  0.00000000E+00  0.00000000E+00  0.00000000E+00
  0.00000000E+00  0.00000000E+00  0.00000000E+00
  0.00000000E+00  0.00000000E+00  0.00000000E+00
  0.00000000E+00  0.00000000E+00  0.00000000E+00
  0.00000000E+00  0.00000000E+00  0.00000000E+00
  0.00000000E+00  0.00000000E+00  0.00000000E+00
  0.00000000E+00  0.00000000E+00  0.00000000E+00
  0.00000000E+00  0.00000000E+00  0.00000000E+00
  0.00000000E+00  0.00000000E+00  0.00000000E+00
  0.00000000E+00  0.00000000E+00  0.00000000E+00
  0.00000000E+00  0.00000000E+00  0.00000000E+00
  0.00000000E+00  0.00000000E+00  0.00000000E+00
  0.00000000E+00  0.00000000E+00  0.00000000E+00
  0.00000000E+00  0.00000000E+00  0.00000000E+00
  0.00000000E+00  0.00000000E+00  0.00000000E+00
  0.00000000E+00  0.00000000E+00  0.00000000E+00
  0.00000000E+00  0.00000000E+00  0.00000000E+00
  0.00000000E+00  0.00000000E+00  0.00000000E+00
  0.00000000E+00  0.00000000E+00  0.00000000E+00
  0.00000000E+00  0.00000000E+00  0.00000000E+00
  0.00000000E+00  0.00000000E+00  0.00000000E+00
  0.00000000E+00  0.00000000E+00  0.00000000E+00
  0.00000000E+00  0.00000000E+00  0.00000000E+00
  0.00000000E+00  0.00000000E+00  0.00000000E+00
  0.00000000E+00  0.00000000E+00  0.00000000E+00
  0.00000000E+00  0.00000000E+00  0.00000000E+00
  0.00000000E+00  0.00000000E+00  0.00000000E+00
  0.00000000E+00  0.00000000E+00  0.00000000E+00
  0.00000000E+00  0.00000000E+00  0.00000000E+00
  0.00000000E+00  0.00000000E+00  0.00000000E+00
  0.00000000E+00  0.00000000E+00  0.00000000E+00
  0.00000000E+00  0.00000000E+00  0.00000000E+00
  0.00000000E+00  0.00000000E+00  0.00000000E+00
  0.00000000E+00  0.00000000E+00  0.00000000E+00
  0.00000000E+00  0.00000000E+00  0.00000000E+00
  0.00000000E+00  0.00000000E+00  0.00000000E+00
