C    O    Pt
   1.00000000000000     
   7.2969551199999998  -4.2128990000000002   0.0000000000000000
   0.0000000000000000   8.4257980000000003   0.0000000000000000
   0.0000000000000000   0.0000000000000000  21.8796350000000004
C    O    Pt
1  2  36  
Selective dynamics
Direct
  0.7002603224897962  0.4321207843902377  0.4765058826664682  T  T  T
  0.9060994880361932  0.3842926566768851  0.4619192747956367  T  T  T
  0.6721237773636651  0.4589766669216597  0.5263944144889572  T  T  T
  0.9867550000000020  0.3285910000000030  0.0743760000000009  F  F  F
  0.3200879999999980  0.3285910000000030  0.0743760000000009  F  F  F
  0.6534219999999989  0.3285910000000030  0.0743760000000009  F  F  F
  0.9867550000000020  0.6619249999999970  0.0743760000000009  F  F  F
  0.3200879999999980  0.6619249999999970  0.0743760000000009  F  F  F
  0.6534219999999989  0.6619249999999970  0.0743760000000009  F  F  F
  0.3200879999999980  0.9952580000000000  0.0743760000000009  F  F  F
  0.6534219999999989  0.9952580000000000  0.0743760000000009  F  F  F
  0.9867550000000020  0.9952580000000000  0.0743760000000009  F  F  F
  0.2089769999999970  0.1063690000000010  0.1791860000000010  F  F  F
  0.5423109999999980  0.1063690000000010  0.1791860000000010  F  F  F
  0.8756440000000010  0.1063690000000010  0.1791860000000010  F  F  F
  0.2089769999999970  0.4397030000000020  0.1791860000000010  F  F  F
  0.5423109999999980  0.4397030000000020  0.1791860000000010  F  F  F
  0.8756440000000010  0.4397030000000020  0.1791860000000010  F  F  F
  0.2089769999999970  0.7730359999999979  0.1791860000000010  F  F  F
  0.5423109999999980  0.7730359999999979  0.1791860000000010  F  F  F
  0.8756440000000010  0.7730359999999979  0.1791860000000010  F  F  F
  0.1021922913030433  0.5522560067429455  0.2841371336252320  T  T  T
  0.4269051608947025  0.8880989542776625  0.2833595152461503  T  T  T
  0.7668010425761856  0.2140551741177781  0.2824661200035343  T  T  T
  0.0954501999016658  0.2157981811872025  0.2843250343353902  T  T  T
  0.4353027145415168  0.2158838972210035  0.2828869461141397  T  T  T
  0.0958784224566536  0.8850145458368145  0.2873456110105870  T  T  T
  0.7620074524693030  0.8837198114016663  0.2814531858234837  T  T  T
  0.4292260735026447  0.5455747312232421  0.2798309690249863  T  T  T
  0.7644248263185678  0.5484771393104156  0.2845596511531009  T  T  T
  0.3241654809831490  0.6654029248496034  0.3868637098817125  T  T  T
  0.6547098449663615  0.9931044678937723  0.3901765065438111  T  T  T
  0.3239858008042426  0.3273390489662477  0.3842495535335074  T  T  T
  0.9898463755902117  0.9871112090160845  0.3880133118405727  T  T  T
  0.3234231394227193  0.9913881548465194  0.3901070635088190  T  T  T
  0.6472171006035464  0.3196795174286077  0.3931440268378030  T  T  T
  0.9966882872767389  0.6668491111952524  0.3914240899236732  T  T  T
  0.9939756846255774  0.3177183404838243  0.3921481641444524  T  T  T
  0.6549045120731528  0.6679286384901801  0.3890445643116836  T  T  T
