C    O    Pt
   1.00000000000000     
   7.2969551199999998  -4.2128990000000002   0.0000000000000000
   0.0000000000000000   8.4257980000000003   0.0000000000000000
   0.0000000000000000   0.0000000000000000  21.8796350000000004
C    O    Pt
1  2  36  
Selective dynamics
Direct
  0.7021077622940476  0.4383769641680811  0.4765540052433673  T  T  T
  0.9038418564409448  0.3838006682797902  0.4695190444654582  T  T  T
  0.6739712171679165  0.4652328466995031  0.5264425370658563  T  T  T
  0.9867550000000020  0.3285910000000030  0.0743760000000009  F  F  F
  0.3200879999999980  0.3285910000000030  0.0743760000000009  F  F  F
  0.6534219999999989  0.3285910000000030  0.0743760000000009  F  F  F
  0.9867550000000020  0.6619249999999970  0.0743760000000009  F  F  F
  0.3200879999999980  0.6619249999999970  0.0743760000000009  F  F  F
  0.6534219999999989  0.6619249999999970  0.0743760000000009  F  F  F
  0.3200879999999980  0.9952580000000000  0.0743760000000009  F  F  F
  0.6534219999999989  0.9952580000000000  0.0743760000000009  F  F  F
  0.9867550000000020  0.9952580000000000  0.0743760000000009  F  F  F
  0.2089769999999970  0.1063690000000010  0.1791860000000010  F  F  F
  0.5423109999999980  0.1063690000000010  0.1791860000000010  F  F  F
  0.8756440000000010  0.1063690000000010  0.1791860000000010  F  F  F
  0.2089769999999970  0.4397030000000020  0.1791860000000010  F  F  F
  0.5423109999999980  0.4397030000000020  0.1791860000000010  F  F  F
  0.8756440000000010  0.4397030000000020  0.1791860000000010  F  F  F
  0.2089769999999970  0.7730359999999979  0.1791860000000010  F  F  F
  0.5423109999999980  0.7730359999999979  0.1791860000000010  F  F  F
  0.8756440000000010  0.7730359999999979  0.1791860000000010  F  F  F
  0.0980985524287431  0.5463673539689600  0.2877495371330975  T  T  T
  0.4345992002922550  0.8851599421095405  0.2862013631752161  T  T  T
  0.7664520221643960  0.2219309776898996  0.2816051525881015  T  T  T
  0.0945325950376249  0.2165941891326864  0.2834384879873239  T  T  T
  0.4363652058309911  0.2144769885915016  0.2859684004587307  T  T  T
  0.0954672162787711  0.8823677085852134  0.2837664803119312  T  T  T
  0.7598924297946102  0.8870578625073697  0.2861435040745092  T  T  T
  0.4278052299005471  0.5493365071733024  0.2807940463551979  T  T  T
  0.7675621595646773  0.5473640313238834  0.2869306250847054  T  T  T
  0.3226588739755246  0.6594677621683050  0.3895216327110090  T  T  T
  0.6517990828842458  0.9895559258431633  0.3831903670187072  T  T  T
  0.3269052509727033  0.3257446377819969  0.3895760478938184  T  T  T
  0.9857901468992862  0.9897921072883477  0.3877208401824620  T  T  T
  0.3205676175225515  0.9883979557600407  0.3854644774920383  T  T  T
  0.6453834510513959  0.3246882223953600  0.3959037604648237  T  T  T
  0.9991490496405057  0.6700494913831675  0.3911504465254246  T  T  T
  0.9925385334638767  0.3187970245362403  0.3898966285723273  T  T  T
  0.6552090116272612  0.6612686835834625  0.3853297143984338  T  T  T
