C    O    Pt
   1.00000000000000     
   7.2969551199999998  -4.2128990000000002   0.0000000000000000
   0.0000000000000000   8.4257980000000003   0.0000000000000000
   0.0000000000000000   0.0000000000000000  21.8796350000000004
C    O    Pt
1  2  36  
Selective dynamics
Direct
  0.6993820889473039  0.4330949490228331  0.4756995428400809  T  T  T
  0.9086623589116938  0.3860088404702565  0.4692584198580128  T  T  T
  0.6712455438211729  0.4599508315542551  0.5255880746625698  T  T  T
  0.9867550000000020  0.3285910000000030  0.0743760000000009  F  F  F
  0.3200879999999980  0.3285910000000030  0.0743760000000009  F  F  F
  0.6534219999999989  0.3285910000000030  0.0743760000000009  F  F  F
  0.9867550000000020  0.6619249999999970  0.0743760000000009  F  F  F
  0.3200879999999980  0.6619249999999970  0.0743760000000009  F  F  F
  0.6534219999999989  0.6619249999999970  0.0743760000000009  F  F  F
  0.3200879999999980  0.9952580000000000  0.0743760000000009  F  F  F
  0.6534219999999989  0.9952580000000000  0.0743760000000009  F  F  F
  0.9867550000000020  0.9952580000000000  0.0743760000000009  F  F  F
  0.2089769999999970  0.1063690000000010  0.1791860000000010  F  F  F
  0.5423109999999980  0.1063690000000010  0.1791860000000010  F  F  F
  0.8756440000000010  0.1063690000000010  0.1791860000000010  F  F  F
  0.2089769999999970  0.4397030000000020  0.1791860000000010  F  F  F
  0.5423109999999980  0.4397030000000020  0.1791860000000010  F  F  F
  0.8756440000000010  0.4397030000000020  0.1791860000000010  F  F  F
  0.2089769999999970  0.7730359999999979  0.1791860000000010  F  F  F
  0.5423109999999980  0.7730359999999979  0.1791860000000010  F  F  F
  0.8756440000000010  0.7730359999999979  0.1791860000000010  F  F  F
  0.1021032906790991  0.5507794207864171  0.2810286081211139  T  T  T
  0.4288000483701942  0.8829531134832406  0.2812769373237086  T  T  T
  0.7592436787768766  0.2209221761044678  0.2852907314928450  T  T  T
  0.0932227266277220  0.2176209198486902  0.2821152794765662  T  T  T
  0.4318539022011965  0.2169134324036795  0.2857542106196790  T  T  T
  0.1006902027367615  0.8836997925955200  0.2788488080848144  T  T  T
  0.7680315135691337  0.8805981609918564  0.2786739093912950  T  T  T
  0.4336468448520212  0.5545417648701052  0.2843026313041050  T  T  T
  0.7627576257083810  0.5487153094792453  0.2829417185222986  T  T  T
  0.3282369759214408  0.6629302690377323  0.3846704734990011  T  T  T
  0.6538793099056914  0.9911752239079499  0.3879267984507695  T  T  T
  0.3189991185306921  0.3243911000714427  0.3873968061790287  T  T  T
  0.9892699868884773  0.9956039645035417  0.3892929910929306  T  T  T
  0.3194335903485914  0.9954340410459366  0.3867546523102460  T  T  T
  0.6430597285593861  0.3191479322917639  0.3970035808515332  T  T  T
  0.9962374881824084  0.6704468083514692  0.3904855105381551  T  T  T
  0.9922106199357964  0.3244178189407246  0.3899583460188689  T  T  T
  0.6602697872493081  0.6642516460565495  0.3864842642789988  T  T  T
