C    O    Pt
   1.00000000000000     
   7.2969551199999998  -4.2128990000000002   0.0000000000000000
   0.0000000000000000   8.4257980000000003   0.0000000000000000
   0.0000000000000000   0.0000000000000000  21.8796350000000004
C    O    Pt
1  2  36  
Selective dynamics
Direct
  0.6990056590404218  0.4373536129273104  0.4724994142373432  T  T  T
  0.9082355907812684  0.3865534408955091  0.4610647366218611  T  T  T
  0.6708691139142907  0.4642094954587324  0.5223879460598321  T  T  T
  0.9867550000000020  0.3285910000000030  0.0743760000000009  F  F  F
  0.3200879999999980  0.3285910000000030  0.0743760000000009  F  F  F
  0.6534219999999989  0.3285910000000030  0.0743760000000009  F  F  F
  0.9867550000000020  0.6619249999999970  0.0743760000000009  F  F  F
  0.3200879999999980  0.6619249999999970  0.0743760000000009  F  F  F
  0.6534219999999989  0.6619249999999970  0.0743760000000009  F  F  F
  0.3200879999999980  0.9952580000000000  0.0743760000000009  F  F  F
  0.6534219999999989  0.9952580000000000  0.0743760000000009  F  F  F
  0.9867550000000020  0.9952580000000000  0.0743760000000009  F  F  F
  0.2089769999999970  0.1063690000000010  0.1791860000000010  F  F  F
  0.5423109999999980  0.1063690000000010  0.1791860000000010  F  F  F
  0.8756440000000010  0.1063690000000010  0.1791860000000010  F  F  F
  0.2089769999999970  0.4397030000000020  0.1791860000000010  F  F  F
  0.5423109999999980  0.4397030000000020  0.1791860000000010  F  F  F
  0.8756440000000010  0.4397030000000020  0.1791860000000010  F  F  F
  0.2089769999999970  0.7730359999999979  0.1791860000000010  F  F  F
  0.5423109999999980  0.7730359999999979  0.1791860000000010  F  F  F
  0.8756440000000010  0.7730359999999979  0.1791860000000010  F  F  F
  0.0966878072890734  0.5494894911696404  0.2793519355386102  T  T  T
  0.4320103320334711  0.8838375328594396  0.2840537698020296  T  T  T
  0.7656923234543678  0.2187868075534406  0.2854733474738693  T  T  T
  0.1005668448027658  0.2231564375633639  0.2891615937007188  T  T  T
  0.4328359282847562  0.2129927248876924  0.2869420138904816  T  T  T
  0.0939749663408686  0.8835387123299167  0.2833043530697909  T  T  T
  0.7611861660582279  0.8853063195465406  0.2847801585718100  T  T  T
  0.4292144922145424  0.5528358642192669  0.2807681908904450  T  T  T
  0.7692058155277682  0.5528325132328578  0.2847790509753159  T  T  T
  0.3239685376692022  0.6571571743162249  0.3832157725891115  T  T  T
  0.6497995870400833  0.9854373465508420  0.3844648408527171  T  T  T
  0.3191835058879026  0.3285295979666785  0.3877939270034421  T  T  T
  0.9912270331409547  0.9878827472851631  0.3867567456868096  T  T  T
  0.3235529874721131  0.9896781853811595  0.3834540429223465  T  T  T
  0.6477498279403021  0.3213425185144591  0.3898465169063582  T  T  T
  0.9973922240087321  0.6665602916766613  0.3839247423091177  T  T  T
  0.9987642957028465  0.3159611885135620  0.3918951639651208  T  T  T
  0.6609800108013898  0.6663889256812013  0.3937069589637870  T  T  T
