C    O    Pt
   1.00000000000000     
   7.2969551199999998  -4.2128990000000002   0.0000000000000000
   0.0000000000000000   8.4257980000000003   0.0000000000000000
   0.0000000000000000   0.0000000000000000  21.8796350000000004
C    O    Pt
1  2  36  
Selective dynamics
Direct
  0.7025208410824797  0.4333106639456055  0.4751177153332433  T  T  T
  0.9027513089974772  0.3836615877711074  0.4630709493653136  T  T  T
  0.6743842959563486  0.4601665464770275  0.5250062471557323  T  T  T
  0.9867550000000020  0.3285910000000030  0.0743760000000009  F  F  F
  0.3200879999999980  0.3285910000000030  0.0743760000000009  F  F  F
  0.6534219999999989  0.3285910000000030  0.0743760000000009  F  F  F
  0.9867550000000020  0.6619249999999970  0.0743760000000009  F  F  F
  0.3200879999999980  0.6619249999999970  0.0743760000000009  F  F  F
  0.6534219999999989  0.6619249999999970  0.0743760000000009  F  F  F
  0.3200879999999980  0.9952580000000000  0.0743760000000009  F  F  F
  0.6534219999999989  0.9952580000000000  0.0743760000000009  F  F  F
  0.9867550000000020  0.9952580000000000  0.0743760000000009  F  F  F
  0.2089769999999970  0.1063690000000010  0.1791860000000010  F  F  F
  0.5423109999999980  0.1063690000000010  0.1791860000000010  F  F  F
  0.8756440000000010  0.1063690000000010  0.1791860000000010  F  F  F
  0.2089769999999970  0.4397030000000020  0.1791860000000010  F  F  F
  0.5423109999999980  0.4397030000000020  0.1791860000000010  F  F  F
  0.8756440000000010  0.4397030000000020  0.1791860000000010  F  F  F
  0.2089769999999970  0.7730359999999979  0.1791860000000010  F  F  F
  0.5423109999999980  0.7730359999999979  0.1791860000000010  F  F  F
  0.8756440000000010  0.7730359999999979  0.1791860000000010  F  F  F
  0.1011357089314875  0.5451886798891026  0.2867057612030489  T  T  T
  0.4293785072502351  0.8851766472946093  0.2871450040069909  T  T  T
  0.7641061709133106  0.2223381674656052  0.2860350347296075  T  T  T
  0.0913071814009839  0.2156077832204966  0.2852003233590945  T  T  T
  0.4362306092573658  0.2125645012056414  0.2882017454880712  T  T  T
  0.0963444836792859  0.8782955396260539  0.2776307164214787  T  T  T
  0.7628599954736647  0.8773720705397773  0.2877171071876785  T  T  T
  0.4328297866185672  0.5456547670737898  0.2855440649757908  T  T  T
  0.7672564826906234  0.5532521261424583  0.2880186167079157  T  T  T
  0.3261411613735577  0.6583447861066039  0.3826994781212333  T  T  T
  0.6544159874327126  0.9870659883244245  0.3865961467611926  T  T  T
  0.3179282023693091  0.3270509424106505  0.3823149562963426  T  T  T
  0.9872204941832454  0.9956243401577314  0.3926115126055360  T  T  T
  0.3242010845323666  0.9874168305962185  0.3925013984910420  T  T  T
  0.6431971006757755  0.3248418942095532  0.3965497482653426  T  T  T
  0.9919886447736629  0.6634698678363927  0.3908592093492368  T  T  T
  0.9938611714888996  0.3189865511394803  0.3886104295390895  T  T  T
  0.6564309643568471  0.6623852836329800  0.3930163629920848  T  T  T
