C    O    Pt
   1.00000000000000     
   7.2969551199999998  -4.2128990000000002   0.0000000000000000
   0.0000000000000000   8.4257980000000003   0.0000000000000000
   0.0000000000000000   0.0000000000000000  21.8796350000000004
C    O    Pt
1  2  36  
Selective dynamics
Direct
  0.6990496955854715  0.4331615353419380  0.4717998545379048  T  T  T
  0.9016655019360970  0.3895958608608507  0.4616606134019643  T  T  T
  0.6709131504593404  0.4600174178733600  0.5216883863603937  T  T  T
  0.9867550000000020  0.3285910000000030  0.0743760000000009  F  F  F
  0.3200879999999980  0.3285910000000030  0.0743760000000009  F  F  F
  0.6534219999999989  0.3285910000000030  0.0743760000000009  F  F  F
  0.9867550000000020  0.6619249999999970  0.0743760000000009  F  F  F
  0.3200879999999980  0.6619249999999970  0.0743760000000009  F  F  F
  0.6534219999999989  0.6619249999999970  0.0743760000000009  F  F  F
  0.3200879999999980  0.9952580000000000  0.0743760000000009  F  F  F
  0.6534219999999989  0.9952580000000000  0.0743760000000009  F  F  F
  0.9867550000000020  0.9952580000000000  0.0743760000000009  F  F  F
  0.2089769999999970  0.1063690000000010  0.1791860000000010  F  F  F
  0.5423109999999980  0.1063690000000010  0.1791860000000010  F  F  F
  0.8756440000000010  0.1063690000000010  0.1791860000000010  F  F  F
  0.2089769999999970  0.4397030000000020  0.1791860000000010  F  F  F
  0.5423109999999980  0.4397030000000020  0.1791860000000010  F  F  F
  0.8756440000000010  0.4397030000000020  0.1791860000000010  F  F  F
  0.2089769999999970  0.7730359999999979  0.1791860000000010  F  F  F
  0.5423109999999980  0.7730359999999979  0.1791860000000010  F  F  F
  0.8756440000000010  0.7730359999999979  0.1791860000000010  F  F  F
  0.0939589510740888  0.5535064032586635  0.2842797430727200  T  T  T
  0.4262435899871240  0.8864107763180298  0.2822188332308604  T  T  T
  0.7681943641761559  0.2214852052729351  0.2871295599821136  T  T  T
  0.0975677798401218  0.2198216948685946  0.2845978285058786  T  T  T
  0.4370966741745403  0.2222212119401650  0.2853831631596219  T  T  T
  0.1022778773577234  0.8841553823246332  0.2851321189790230  T  T  T
  0.7635469398289518  0.8782186930550313  0.2833389827836692  T  T  T
  0.4374174225260633  0.5526519175978755  0.2829659438389975  T  T  T
  0.7639302481766533  0.5474586434487576  0.2842726943027978  T  T  T
  0.3259374723535025  0.6609552982382497  0.3860271356154675  T  T  T
  0.6494826821566311  0.9914903482181532  0.3875691558637930  T  T  T
  0.3271530373150150  0.3271381045617560  0.3887501094311256  T  T  T
  0.9842925962204830  0.9886345316561433  0.3838772466593774  T  T  T
  0.3196948174661969  0.9911516317672269  0.3888461431466351  T  T  T
  0.6399802621710945  0.3195698081765899  0.3897548920785425  T  T  T
  0.9935785084482615  0.6631102501451909  0.3820080804539402  T  T  T
  0.9921727099033757  0.3162532394359659  0.3957107909284450  T  T  T
  0.6530872770354667  0.6647818840066232  0.3926485248073269  T  T  T
