C    O    Pt
   1.00000000000000     
   7.2969551199999998  -4.2128990000000002   0.0000000000000000
   0.0000000000000000   8.4257980000000003   0.0000000000000000
   0.0000000000000000   0.0000000000000000  21.8796350000000004
C    O    Pt
1  2  36  
Selective dynamics
Direct
  0.6976779420813176  0.4336884309017966  0.4778510246796059  T  T  T
  0.9071269049376519  0.3818774589599052  0.4617812644593061  T  T  T
  0.6695413969551866  0.4605443134332186  0.5277395565020949  T  T  T
  0.9867550000000020  0.3285910000000030  0.0743760000000009  F  F  F
  0.3200879999999980  0.3285910000000030  0.0743760000000009  F  F  F
  0.6534219999999989  0.3285910000000030  0.0743760000000009  F  F  F
  0.9867550000000020  0.6619249999999970  0.0743760000000009  F  F  F
  0.3200879999999980  0.6619249999999970  0.0743760000000009  F  F  F
  0.6534219999999989  0.6619249999999970  0.0743760000000009  F  F  F
  0.3200879999999980  0.9952580000000000  0.0743760000000009  F  F  F
  0.6534219999999989  0.9952580000000000  0.0743760000000009  F  F  F
  0.9867550000000020  0.9952580000000000  0.0743760000000009  F  F  F
  0.2089769999999970  0.1063690000000010  0.1791860000000010  F  F  F
  0.5423109999999980  0.1063690000000010  0.1791860000000010  F  F  F
  0.8756440000000010  0.1063690000000010  0.1791860000000010  F  F  F
  0.2089769999999970  0.4397030000000020  0.1791860000000010  F  F  F
  0.5423109999999980  0.4397030000000020  0.1791860000000010  F  F  F
  0.8756440000000010  0.4397030000000020  0.1791860000000010  F  F  F
  0.2089769999999970  0.7730359999999979  0.1791860000000010  F  F  F
  0.5423109999999980  0.7730359999999979  0.1791860000000010  F  F  F
  0.8756440000000010  0.7730359999999979  0.1791860000000010  F  F  F
  0.0948455156406817  0.5503938697830506  0.2813809488819493  T  T  T
  0.4339703292586493  0.8856559198179832  0.2805591061423494  T  T  T
  0.7596807808535229  0.2216569475074048  0.2815007774296310  T  T  T
  0.0974889604443074  0.2139053283874677  0.2827530962973669  T  T  T
  0.4358336735291741  0.2195380343169194  0.2842960194220253  T  T  T
  0.0971573583325233  0.8853290263338616  0.2864963875811462  T  T  T
  0.7667337117486830  0.8808328285730996  0.2822087082149596  T  T  T
  0.4327425450359825  0.5529455547331006  0.2835103243952617  T  T  T
  0.7612857959533295  0.5516846636295967  0.2810192659262302  T  T  T
  0.3265179542967475  0.6605840458007698  0.3856669328130857  T  T  T
  0.6531593289855759  0.9914978232261034  0.3855471492866506  T  T  T
  0.3255208813945411  0.3240161287007058  0.3832520895107474  T  T  T
  0.9881180810153591  0.9894611836379595  0.3853837417780497  T  T  T
  0.3241066515072580  0.9929802309571897  0.3841875504185140  T  T  T
  0.6477291992186798  0.3274219847016139  0.3968823947854772  T  T  T
  0.9982512055157405  0.6627816966607506  0.3896630490492642  T  T  T
  0.9890909955290046  0.3190162539099058  0.3952107090799397  T  T  T
  0.6512216573956591  0.6598577835556023  0.3939728806529189  T  T  T
