C    O    Pt
   1.00000000000000     
   7.2969551199999998  -4.2128990000000002   0.0000000000000000
   0.0000000000000000   8.4257980000000003   0.0000000000000000
   0.0000000000000000   0.0000000000000000  21.8796350000000004
C    O    Pt
1  2  36  
Selective dynamics
Direct
  0.7002088044274752  0.4390238744137261  0.4745704809665303  T  T  T
  0.9052662198857500  0.3832047304962310  0.4623020604574091  T  T  T
  0.6720722593013442  0.4658797569451481  0.5244590127890193  T  T  T
  0.9867550000000020  0.3285910000000030  0.0743760000000009  F  F  F
  0.3200879999999980  0.3285910000000030  0.0743760000000009  F  F  F
  0.6534219999999989  0.3285910000000030  0.0743760000000009  F  F  F
  0.9867550000000020  0.6619249999999970  0.0743760000000009  F  F  F
  0.3200879999999980  0.6619249999999970  0.0743760000000009  F  F  F
  0.6534219999999989  0.6619249999999970  0.0743760000000009  F  F  F
  0.3200879999999980  0.9952580000000000  0.0743760000000009  F  F  F
  0.6534219999999989  0.9952580000000000  0.0743760000000009  F  F  F
  0.9867550000000020  0.9952580000000000  0.0743760000000009  F  F  F
  0.2089769999999970  0.1063690000000010  0.1791860000000010  F  F  F
  0.5423109999999980  0.1063690000000010  0.1791860000000010  F  F  F
  0.8756440000000010  0.1063690000000010  0.1791860000000010  F  F  F
  0.2089769999999970  0.4397030000000020  0.1791860000000010  F  F  F
  0.5423109999999980  0.4397030000000020  0.1791860000000010  F  F  F
  0.8756440000000010  0.4397030000000020  0.1791860000000010  F  F  F
  0.2089769999999970  0.7730359999999979  0.1791860000000010  F  F  F
  0.5423109999999980  0.7730359999999979  0.1791860000000010  F  F  F
  0.8756440000000010  0.7730359999999979  0.1791860000000010  F  F  F
  0.1000790564694952  0.5478491120676560  0.2814924082914496  T  T  T
  0.4327077223447559  0.8865028677324331  0.2836566980286639  T  T  T
  0.7676809385348018  0.2134326370147232  0.2821532461843098  T  T  T
  0.1004866244246160  0.2186124720130704  0.2798025788292270  T  T  T
  0.4383794703735560  0.2173452880892640  0.2833618512287846  T  T  T
  0.0946439223561465  0.8875444416663170  0.2845069253415544  T  T  T
  0.7640656696282971  0.8812972164223724  0.2812121402112569  T  T  T
  0.4343431015739028  0.5525283945652637  0.2798889761387116  T  T  T
  0.7660406775201203  0.5519360834656507  0.2833262802245107  T  T  T
  0.3198399987847022  0.6618058667166296  0.3832519035121110  T  T  T
  0.6474929274520335  0.9919484779892994  0.3821279147546049  T  T  T
  0.3186117377341262  0.3259094801378952  0.3834532323190965  T  T  T
  0.9936790706115641  0.9903136889240853  0.3858596662125287  T  T  T
  0.3209699430210126  0.9910305477962419  0.3833458017680753  T  T  T
  0.6467493989684830  0.3245071564111389  0.3956491899955555  T  T  T
  0.9979935445319551  0.6669673396651499  0.3844930306646272  T  T  T
  0.9953996953471493  0.3228209672977023  0.3907480438595581  T  T  T
  0.6592719875231904  0.6617150988714652  0.3933500014366459  T  T  T
