C    O    Pt                            
   1.00000000000000     
     7.2969551199999998   -4.2128990000000002    0.0000000000000000
     0.0000000000000000    8.4257980000000003    0.0000000000000000
     0.0000000000000000    0.0000000000000000   21.8796350000000004
   C    O    Pt
     1     2    36
Selective dynamics
Direct
  0.6978746258698021  0.4264131024357793  0.4777904080827614   T   T   T
  0.9032427048261059  0.3899339279076254  0.4674611983064164   T   T   T
  0.6722991236566574  0.4579072996883525  0.5271198436066734   T   T   T
  0.9867550000000023  0.3285910000000030  0.0743760000000009   F   F   F
  0.3200879999999984  0.3285910000000030  0.0743760000000009   F   F   F
  0.6534219999999991  0.3285910000000030  0.0743760000000009   F   F   F
  0.9867550000000023  0.6619249999999965  0.0743760000000009   F   F   F
  0.3200879999999984  0.6619249999999965  0.0743760000000009   F   F   F
  0.6534219999999991  0.6619249999999965  0.0743760000000009   F   F   F
  0.3200879999999984  0.9952579999999998  0.0743760000000009   F   F   F
  0.6534219999999991  0.9952579999999998  0.0743760000000009   F   F   F
  0.9867550000000023  0.9952579999999996  0.0743760000000009   F   F   F
  0.2089769999999973  0.1063690000000008  0.1791860000000014   F   F   F
  0.5423109999999980  0.1063690000000008  0.1791860000000014   F   F   F
  0.8756440000000012  0.1063690000000008  0.1791860000000014   F   F   F
  0.2089769999999973  0.4397030000000015  0.1791860000000014   F   F   F
  0.5423109999999980  0.4397030000000015  0.1791860000000014   F   F   F
  0.8756440000000012  0.4397030000000015  0.1791860000000014   F   F   F
  0.2089769999999973  0.7730359999999976  0.1791860000000014   F   F   F
  0.5423109999999980  0.7730359999999976  0.1791860000000014   F   F   F
  0.8756440000000012  0.7730359999999977  0.1791860000000014   F   F   F
  0.0964474110323355  0.5473647905593959  0.2853884423143016   T   T   T
  0.4309735031147741  0.8845444286237855  0.2840431393596375   T   T   T
  0.7613415534926524  0.2212686969406145  0.2809447524454585   T   T   T
  0.0938805944098184  0.2193802913814711  0.2857511061372976   T   T   T
  0.4304586896442805  0.2198949861965279  0.2811157384658383   T   T   T
  0.0950992916551128  0.8864495255329756  0.2836124287747317   T   T   T
  0.7612888727151867  0.8848886780300348  0.2853148614840907   T   T   T
  0.4289109356441052  0.5508072050816285  0.2838858223569634   T   T   T
  0.7663784396378326  0.5513475948297372  0.2852878188407618   T   T   T
  0.3213236104554701  0.6596819922448421  0.3873576372677751   T   T   T
  0.6489901545695299  0.9930028960339695  0.3852079028263447   T   T   T
  0.3248505163520203  0.3232741814003197  0.3880707277171498   T   T   T
  0.9848937404339037  0.9933807403041031  0.3869313122400364   T   T   T
  0.3185033134081000  0.9919608556625729  0.3885552463668562   T   T   T
  0.6426709221003956  0.3223956808520209  0.3943165227417567   T   T   T
  0.9943065147469988  0.6690939447714419  0.3850218708060195   T   T   T
  0.9900381053243208  0.3173196034259275  0.3942599659088481   T   T   T
  0.6559192780631478  0.6596145699857773  0.3902704162240532   T   T   T
 
  0.00000000E+00  0.00000000E+00  0.00000000E+00
  0.00000000E+00  0.00000000E+00  0.00000000E+00
  0.00000000E+00  0.00000000E+00  0.00000000E+00
  0.00000000E+00  0.00000000E+00  0.00000000E+00
  0.00000000E+00  0.00000000E+00  0.00000000E+00
  0.00000000E+00  0.00000000E+00  0.00000000E+00
  0.00000000E+00  0.00000000E+00  0.00000000E+00
  0.00000000E+00  0.00000000E+00  0.00000000E+00
  0.00000000E+00  0.00000000E+00  0.00000000E+00
  0.00000000E+00  0.00000000E+00  0.00000000E+00
  0.00000000E+00  0.00000000E+00  0.00000000E+00
  0.00000000E+00  0.00000000E+00  0.00000000E+00
  0.00000000E+00  0.00000000E+00  0.00000000E+00
  0.00000000E+00  0.00000000E+00  0.00000000E+00
  0.00000000E+00  0.00000000E+00  0.00000000E+00
  0.00000000E+00  0.00000000E+00  0.00000000E+00
  0.00000000E+00  0.00000000E+00  0.00000000E+00
  0.00000000E+00  0.00000000E+00  0.00000000E+00
  0.00000000E+00  0.00000000E+00  0.00000000E+00
  0.00000000E+00  0.00000000E+00  0.00000000E+00
  0.00000000E+00  0.00000000E+00  0.00000000E+00
  0.00000000E+00  0.00000000E+00  0.00000000E+00
  0.00000000E+00  0.00000000E+00  0.00000000E+00
  0.00000000E+00  0.00000000E+00  0.00000000E+00
  0.00000000E+00  0.00000000E+00  0.00000000E+00
  0.00000000E+00  0.00000000E+00  0.00000000E+00
  0.00000000E+00  0.00000000E+00  0.00000000E+00
  0.00000000E+00  0.00000000E+00  0.00000000E+00
  0.00000000E+00  0.00000000E+00  0.00000000E+00
  0.00000000E+00  0.00000000E+00  0.00000000E+00
  0.00000000E+00  0.00000000E+00  0.00000000E+00
  0.00000000E+00  0.00000000E+00  0.00000000E+00
  0.00000000E+00  0.00000000E+00  0.00000000E+00
  0.00000000E+00  0.00000000E+00  0.00000000E+00
  0.00000000E+00  0.00000000E+00  0.00000000E+00
  0.00000000E+00  0.00000000E+00  0.00000000E+00
  0.00000000E+00  0.00000000E+00  0.00000000E+00
  0.00000000E+00  0.00000000E+00  0.00000000E+00
  0.00000000E+00  0.00000000E+00  0.00000000E+00
