C    O    Pt
   1.00000000000000     
   7.2969551199999998  -4.2128990000000002   0.0000000000000000
   0.0000000000000000   8.4257980000000003   0.0000000000000000
   0.0000000000000000   0.0000000000000000  21.8796350000000004
C    O    Pt
1  2  36  
Selective dynamics
Direct
  0.6989562291181266  0.4308852581614511  0.4784445602042955  T  T  T
  0.9016830972379793  0.3881346415802853  0.4674234595122106  T  T  T
  0.6708196839919955  0.4577411406928731  0.5283330920267845  T  T  T
  0.9867550000000020  0.3285910000000030  0.0743760000000009  F  F  F
  0.3200879999999980  0.3285910000000030  0.0743760000000009  F  F  F
  0.6534219999999989  0.3285910000000030  0.0743760000000009  F  F  F
  0.9867550000000020  0.6619249999999970  0.0743760000000009  F  F  F
  0.3200879999999980  0.6619249999999970  0.0743760000000009  F  F  F
  0.6534219999999989  0.6619249999999970  0.0743760000000009  F  F  F
  0.3200879999999980  0.9952580000000000  0.0743760000000009  F  F  F
  0.6534219999999989  0.9952580000000000  0.0743760000000009  F  F  F
  0.9867550000000020  0.9952580000000000  0.0743760000000009  F  F  F
  0.2089769999999970  0.1063690000000010  0.1791860000000010  F  F  F
  0.5423109999999980  0.1063690000000010  0.1791860000000010  F  F  F
  0.8756440000000010  0.1063690000000010  0.1791860000000010  F  F  F
  0.2089769999999970  0.4397030000000020  0.1791860000000010  F  F  F
  0.5423109999999980  0.4397030000000020  0.1791860000000010  F  F  F
  0.8756440000000010  0.4397030000000020  0.1791860000000010  F  F  F
  0.2089769999999970  0.7730359999999979  0.1791860000000010  F  F  F
  0.5423109999999980  0.7730359999999979  0.1791860000000010  F  F  F
  0.8756440000000010  0.7730359999999979  0.1791860000000010  F  F  F
  0.0961052786551302  0.5470375065312544  0.2863238962797001  T  T  T
  0.4332806996702995  0.8849251625085404  0.2849841671079589  T  T  T
  0.7608863652258757  0.2217318985038836  0.2797386444950153  T  T  T
  0.0939181459011706  0.2181303170002780  0.2861970562583472  T  T  T
  0.4300139501279476  0.2204614860805612  0.2801490509053107  T  T  T
  0.0935882859519464  0.8870009959327035  0.2845500690894642  T  T  T
  0.7611704840317444  0.8865187850243448  0.2866697817419122  T  T  T
  0.4276526282931431  0.5510748412256768  0.2839901320071435  T  T  T
  0.7683507180630499  0.5516910164814534  0.2861792577844607  T  T  T
  0.3205486420226957  0.6596465049234903  0.3870554438210689  T  T  T
  0.6486958514102383  0.9928568069120846  0.3843926490036290  T  T  T
  0.3265313999826565  0.3230085794818564  0.3883315297709671  T  T  T
  0.9844092438084505  0.9940153237997239  0.3859386852483604  T  T  T
  0.3184367837498234  0.9918848333065335  0.3887078756537443  T  T  T
  0.6431263927914181  0.3205193525599281  0.3933524728001754  T  T  T
  0.9942827814557657  0.6692278530649569  0.3840055928146996  T  T  T
  0.9903196625809211  0.3161315446913906  0.3938103312510617  T  T  T
  0.6565132443683501  0.6582778306859616  0.3905945587587137  T  T  T
