C    O    Pt
   1.00000000000000     
   7.2969551199999998  -4.2128990000000002   0.0000000000000000
   0.0000000000000000   8.4257980000000003   0.0000000000000000
   0.0000000000000000   0.0000000000000000  21.8796350000000004
C    O    Pt
1  2  36  
Selective dynamics
Direct
  0.7055603699102512  0.4341959321260508  0.4787248673328735  T  T  T
  0.9097856818525386  0.3816667223600978  0.4599911907275093  T  T  T
  0.6774238247841201  0.4610518146574729  0.5286133991553625  T  T  T
  0.9867550000000020  0.3285910000000030  0.0743760000000009  F  F  F
  0.3200879999999980  0.3285910000000030  0.0743760000000009  F  F  F
  0.6534219999999989  0.3285910000000030  0.0743760000000009  F  F  F
  0.9867550000000020  0.6619249999999970  0.0743760000000009  F  F  F
  0.3200879999999980  0.6619249999999970  0.0743760000000009  F  F  F
  0.6534219999999989  0.6619249999999970  0.0743760000000009  F  F  F
  0.3200879999999980  0.9952580000000000  0.0743760000000009  F  F  F
  0.6534219999999989  0.9952580000000000  0.0743760000000009  F  F  F
  0.9867550000000020  0.9952580000000000  0.0743760000000009  F  F  F
  0.2089769999999970  0.1063690000000010  0.1791860000000010  F  F  F
  0.5423109999999980  0.1063690000000010  0.1791860000000010  F  F  F
  0.8756440000000010  0.1063690000000010  0.1791860000000010  F  F  F
  0.2089769999999970  0.4397030000000020  0.1791860000000010  F  F  F
  0.5423109999999980  0.4397030000000020  0.1791860000000010  F  F  F
  0.8756440000000010  0.4397030000000020  0.1791860000000010  F  F  F
  0.2089769999999970  0.7730359999999979  0.1791860000000010  F  F  F
  0.5423109999999980  0.7730359999999979  0.1791860000000010  F  F  F
  0.8756440000000010  0.7730359999999979  0.1791860000000010  F  F  F
  0.1003989378798119  0.5481091320369139  0.2781903206502643  T  T  T
  0.4290876270816825  0.8818870225440177  0.2816217549151988  T  T  T
  0.7636126932504814  0.2208614499944740  0.2835231763004770  T  T  T
  0.0940461772669299  0.2213206735921411  0.2825661377428600  T  T  T
  0.4311941675017832  0.2166116424886229  0.2880671308374217  T  T  T
  0.0968643277225847  0.8810213757465499  0.2785237333098222  T  T  T
  0.7629455760491454  0.8840353641798110  0.2811902977175248  T  T  T
  0.4305404139476425  0.5471064906297086  0.2784748363150254  T  T  T
  0.7619799124807379  0.5493924474379800  0.2826881925830990  T  T  T
  0.3215475644361952  0.6659947184427193  0.3897994476794621  T  T  T
  0.6532329717259538  0.9898486902067054  0.3840036402971266  T  T  T
  0.3231885703093436  0.3209541737627539  0.3896979629423429  T  T  T
  0.9885900171241175  0.9917961424591590  0.3890317026687619  T  T  T
  0.3171095330760941  0.9958953040358741  0.3852748852135002  T  T  T
  0.6473181401244307  0.3237376425326352  0.3929227685774536  T  T  T
  0.9959861551828922  0.6694847125843217  0.3849294624697984  T  T  T
  0.9939340820572413  0.3160075521224961  0.3955592870451708  T  T  T
  0.6519103930044114  0.6646965194151420  0.3888837470080276  T  T  T
