C    O    Pt
   1.00000000000000     
   7.2969551199999998  -4.2128990000000002   0.0000000000000000
   0.0000000000000000   8.4257980000000003   0.0000000000000000
   0.0000000000000000   0.0000000000000000  21.8796350000000004
C    O    Pt
1  2  36  
Selective dynamics
Direct
  0.7070876515499066  0.4393865643102970  0.4787889132519847  T  T  T
  0.9036596953235284  0.3888332767801527  0.4653009813308708  T  T  T
  0.6789511064237755  0.4662424468417191  0.5286774450744737  T  T  T
  0.9867550000000020  0.3285910000000030  0.0743760000000009  F  F  F
  0.3200879999999980  0.3285910000000030  0.0743760000000009  F  F  F
  0.6534219999999989  0.3285910000000030  0.0743760000000009  F  F  F
  0.9867550000000020  0.6619249999999970  0.0743760000000009  F  F  F
  0.3200879999999980  0.6619249999999970  0.0743760000000009  F  F  F
  0.6534219999999989  0.6619249999999970  0.0743760000000009  F  F  F
  0.3200879999999980  0.9952580000000000  0.0743760000000009  F  F  F
  0.6534219999999989  0.9952580000000000  0.0743760000000009  F  F  F
  0.9867550000000020  0.9952580000000000  0.0743760000000009  F  F  F
  0.2089769999999970  0.1063690000000010  0.1791860000000010  F  F  F
  0.5423109999999980  0.1063690000000010  0.1791860000000010  F  F  F
  0.8756440000000010  0.1063690000000010  0.1791860000000010  F  F  F
  0.2089769999999970  0.4397030000000020  0.1791860000000010  F  F  F
  0.5423109999999980  0.4397030000000020  0.1791860000000010  F  F  F
  0.8756440000000010  0.4397030000000020  0.1791860000000010  F  F  F
  0.2089769999999970  0.7730359999999979  0.1791860000000010  F  F  F
  0.5423109999999980  0.7730359999999979  0.1791860000000010  F  F  F
  0.8756440000000010  0.7730359999999979  0.1791860000000010  F  F  F
  0.1009776807546103  0.5503535746223610  0.2803828518515142  T  T  T
  0.4286657765066390  0.8853122272152298  0.2827623699309855  T  T  T
  0.7643956002413654  0.2199071051137164  0.2875458273311776  T  T  T
  0.0970714876463520  0.2180481831509722  0.2817793181874301  T  T  T
  0.4295418765085799  0.2126003564437897  0.2859538432463455  T  T  T
  0.0973485638052408  0.8871623844862280  0.2847712915655346  T  T  T
  0.7637614450319509  0.8832307382354804  0.2783918638637296  T  T  T
  0.4340596601842193  0.5506469417462229  0.2791292333869217  T  T  T
  0.7616841247681173  0.5522739785908689  0.2789074701640826  T  T  T
  0.3196136346865095  0.6566080025565392  0.3904622581090813  T  T  T
  0.6506860472274983  0.9895671801538142  0.3827371746822970  T  T  T
  0.3214215294759075  0.3260690115011031  0.3904829570743445  T  T  T
  0.9872930117218830  0.9923975232590534  0.3910038252756950  T  T  T
  0.3175880044872047  0.9942638910211512  0.3901704341409550  T  T  T
  0.6467404727110634  0.3195522357888299  0.3912865582379460  T  T  T
  0.9945758267947223  0.6649397084700812  0.3824946180929626  T  T  T
  0.9948195728331802  0.3153745755320234  0.3964316249371424  T  T  T
  0.6524569201981452  0.6643301610959806  0.3866740944451887  T  T  T
