C    O    Pt
   1.00000000000000     
   7.2969551199999998  -4.2128990000000002   0.0000000000000000
   0.0000000000000000   8.4257980000000003   0.0000000000000000
   0.0000000000000000   0.0000000000000000  21.8796350000000004
C    O    Pt
1  2  36  
Selective dynamics
Direct
  0.6985792794670878  0.4367015297527428  0.4731791534095268  T  T  T
  0.9024162448329064  0.3887533622198250  0.4648095015098289  T  T  T
  0.6704427343409567  0.4635574122841648  0.5230676852320159  T  T  T
  0.9867550000000020  0.3285910000000030  0.0743760000000009  F  F  F
  0.3200879999999980  0.3285910000000030  0.0743760000000009  F  F  F
  0.6534219999999989  0.3285910000000030  0.0743760000000009  F  F  F
  0.9867550000000020  0.6619249999999970  0.0743760000000009  F  F  F
  0.3200879999999980  0.6619249999999970  0.0743760000000009  F  F  F
  0.6534219999999989  0.6619249999999970  0.0743760000000009  F  F  F
  0.3200879999999980  0.9952580000000000  0.0743760000000009  F  F  F
  0.6534219999999989  0.9952580000000000  0.0743760000000009  F  F  F
  0.9867550000000020  0.9952580000000000  0.0743760000000009  F  F  F
  0.2089769999999970  0.1063690000000010  0.1791860000000010  F  F  F
  0.5423109999999980  0.1063690000000010  0.1791860000000010  F  F  F
  0.8756440000000010  0.1063690000000010  0.1791860000000010  F  F  F
  0.2089769999999970  0.4397030000000020  0.1791860000000010  F  F  F
  0.5423109999999980  0.4397030000000020  0.1791860000000010  F  F  F
  0.8756440000000010  0.4397030000000020  0.1791860000000010  F  F  F
  0.2089769999999970  0.7730359999999979  0.1791860000000010  F  F  F
  0.5423109999999980  0.7730359999999979  0.1791860000000010  F  F  F
  0.8756440000000010  0.7730359999999979  0.1791860000000010  F  F  F
  0.0999468228896683  0.5501013782228995  0.2842768758881499  T  T  T
  0.4285074256885828  0.8841233028542761  0.2828864323298144  T  T  T
  0.7606317275189471  0.2163843131049294  0.2884680284177914  T  T  T
  0.1003707853662575  0.2233223758911061  0.2838066321362332  T  T  T
  0.4380281965266715  0.2180865995801981  0.2821299317070054  T  T  T
  0.1025933769101957  0.8790048905388851  0.2830785961372907  T  T  T
  0.7691777661406719  0.8837871255109853  0.2824727776397068  T  T  T
  0.4291026659826737  0.5530114524286475  0.2831691886314716  T  T  T
  0.7630759332455020  0.5507585442614542  0.2790990081345590  T  T  T
  0.3267982527762421  0.6564672162099677  0.3868157256765857  T  T  T
  0.6516424591162396  0.9851711757999031  0.3827802802813180  T  T  T
  0.3223170468214118  0.3200060327759442  0.3895117663072076  T  T  T
  0.9843746090313600  0.9888689803416361  0.3905360697135802  T  T  T
  0.3189211543674146  0.9952855371455123  0.3904495599396352  T  T  T
  0.6429915006054765  0.3253728526001353  0.3909747264235349  T  T  T
  0.9934249992002655  0.6649737353497004  0.3915791282954135  T  T  T
  0.9978199232733197  0.3220337618247506  0.3961720586774206  T  T  T
  0.6559779639871516  0.6675992245300725  0.3902901193570270  T  T  T
