C    O    Pt
   1.00000000000000     
   7.2969551199999998  -4.2128990000000002   0.0000000000000000
   0.0000000000000000   8.4257980000000003   0.0000000000000000
   0.0000000000000000   0.0000000000000000  21.8796350000000004
C    O    Pt
1  2  36  
Selective dynamics
Direct
  0.7009225263249028  0.4335901981363959  0.4756846622696450  T  T  T
  0.9108777295078941  0.3818709840689636  0.4633085961982307  T  T  T
  0.6727859811987718  0.4604460806678179  0.5255731940921340  T  T  T
  0.9867550000000020  0.3285910000000030  0.0743760000000009  F  F  F
  0.3200879999999980  0.3285910000000030  0.0743760000000009  F  F  F
  0.6534219999999989  0.3285910000000030  0.0743760000000009  F  F  F
  0.9867550000000020  0.6619249999999970  0.0743760000000009  F  F  F
  0.3200879999999980  0.6619249999999970  0.0743760000000009  F  F  F
  0.6534219999999989  0.6619249999999970  0.0743760000000009  F  F  F
  0.3200879999999980  0.9952580000000000  0.0743760000000009  F  F  F
  0.6534219999999989  0.9952580000000000  0.0743760000000009  F  F  F
  0.9867550000000020  0.9952580000000000  0.0743760000000009  F  F  F
  0.2089769999999970  0.1063690000000010  0.1791860000000010  F  F  F
  0.5423109999999980  0.1063690000000010  0.1791860000000010  F  F  F
  0.8756440000000010  0.1063690000000010  0.1791860000000010  F  F  F
  0.2089769999999970  0.4397030000000020  0.1791860000000010  F  F  F
  0.5423109999999980  0.4397030000000020  0.1791860000000010  F  F  F
  0.8756440000000010  0.4397030000000020  0.1791860000000010  F  F  F
  0.2089769999999970  0.7730359999999979  0.1791860000000010  F  F  F
  0.5423109999999980  0.7730359999999979  0.1791860000000010  F  F  F
  0.8756440000000010  0.7730359999999979  0.1791860000000010  F  F  F
  0.0937811020403472  0.5533035935661711  0.2813680076153242  T  T  T
  0.4283057952633897  0.8801092260401441  0.2813267688957815  T  T  T
  0.7639973521071796  0.2145970223604430  0.2805064819511818  T  T  T
  0.0986173064677874  0.2214043361330927  0.2822252450982565  T  T  T
  0.4354882020196593  0.2175937569687359  0.2790890588469947  T  T  T
  0.0958208638983823  0.8853525610772718  0.2826872304927666  T  T  T
  0.7688589978095398  0.8817786365996665  0.2829124434088582  T  T  T
  0.4307419238352565  0.5487216185282194  0.2863864460927024  T  T  T
  0.7642793457781636  0.5508161869295950  0.2813720153036315  T  T  T
  0.3256217429353595  0.6578873281970375  0.3903987402023723  T  T  T
  0.6538919790514539  0.9938444870473770  0.3818984628271260  T  T  T
  0.3205704450969282  0.3271051390707231  0.3916149760427262  T  T  T
  0.9889812548574237  0.9912886645892226  0.3890382374986711  T  T  T
  0.3195021799548466  0.9912470067615683  0.3906273300137518  T  T  T
  0.6455160387220107  0.3221255290458162  0.3940292505779947  T  T  T
  0.9973827745609943  0.6653046017436834  0.3872666824254288  T  T  T
  0.9896919192729271  0.3201865338515304  0.3915556815826488  T  T  T
  0.6583034162033307  0.6588859157748864  0.3894617494074659  T  T  T
