C    O    Pt
   1.00000000000000     
   7.2969551199999998  -4.2128990000000002   0.0000000000000000
   0.0000000000000000   8.4257980000000003   0.0000000000000000
   0.0000000000000000   0.0000000000000000  21.8796350000000004
C    O    Pt
1  2  36  
Selective dynamics
Direct
  0.7023728772174381  0.4308889818593348  0.4799158506756691  T  T  T
  0.9056034952833552  0.3831760489284652  0.4675358239976224  T  T  T
  0.6742363320913071  0.4577448643907568  0.5298043824981581  T  T  T
  0.9867550000000020  0.3285910000000030  0.0743760000000009  F  F  F
  0.3200879999999980  0.3285910000000030  0.0743760000000009  F  F  F
  0.6534219999999989  0.3285910000000030  0.0743760000000009  F  F  F
  0.9867550000000020  0.6619249999999970  0.0743760000000009  F  F  F
  0.3200879999999980  0.6619249999999970  0.0743760000000009  F  F  F
  0.6534219999999989  0.6619249999999970  0.0743760000000009  F  F  F
  0.3200879999999980  0.9952580000000000  0.0743760000000009  F  F  F
  0.6534219999999989  0.9952580000000000  0.0743760000000009  F  F  F
  0.9867550000000020  0.9952580000000000  0.0743760000000009  F  F  F
  0.2089769999999970  0.1063690000000010  0.1791860000000010  F  F  F
  0.5423109999999980  0.1063690000000010  0.1791860000000010  F  F  F
  0.8756440000000010  0.1063690000000010  0.1791860000000010  F  F  F
  0.2089769999999970  0.4397030000000020  0.1791860000000010  F  F  F
  0.5423109999999980  0.4397030000000020  0.1791860000000010  F  F  F
  0.8756440000000010  0.4397030000000020  0.1791860000000010  F  F  F
  0.2089769999999970  0.7730359999999979  0.1791860000000010  F  F  F
  0.5423109999999980  0.7730359999999979  0.1791860000000010  F  F  F
  0.8756440000000010  0.7730359999999979  0.1791860000000010  F  F  F
  0.0948711471410912  0.5445980579788440  0.2829603534986616  T  T  T
  0.4333712576149558  0.8838444433661513  0.2805923545357528  T  T  T
  0.7604358279269954  0.2172738742135651  0.2856417363217708  T  T  T
  0.0968581927715095  0.2229633468624264  0.2870108001716965  T  T  T
  0.4314910989598272  0.2210237442302860  0.2849168953732432  T  T  T
  0.0934379958155770  0.8863347106744330  0.2833642579512057  T  T  T
  0.7654664086512204  0.8852728894495412  0.2855187717847447  T  T  T
  0.4374004700182058  0.5518202081950481  0.2835756604525867  T  T  T
  0.7691130276153404  0.5479341564359415  0.2887753429944388  T  T  T
  0.3256194179124077  0.6618013969131372  0.3827353166741879  T  T  T
  0.6540895730974919  0.9862401112635646  0.3844408229784321  T  T  T
  0.3239336021245881  0.3199830243509147  0.3837102460445704  T  T  T
  0.9851677070757203  0.9926858321324982  0.3893356931266434  T  T  T
  0.3221556216194231  0.9927581320700167  0.3892086734628198  T  T  T
  0.6390669658307052  0.3239642032860093  0.3950486020368822  T  T  T
  0.9929636791955222  0.6682254138873511  0.3824077984624715  T  T  T
  0.9964851159061935  0.3214230770356976  0.3915801975574683  T  T  T
  0.6541636733433230  0.6642578058286133  0.3896778549375094  T  T  T
