C    O    Pt
   1.00000000000000     
   7.2969551199999998  -4.2128990000000002   0.0000000000000000
   0.0000000000000000   8.4257980000000003   0.0000000000000000
   0.0000000000000000   0.0000000000000000  21.8796350000000004
C    O    Pt
1  2  36  
Selective dynamics
Direct
  0.7051608917446606  0.4383319537337942  0.4790732348264594  T  T  T
  0.9018148029931579  0.3800821051576522  0.4690127235326086  T  T  T
  0.6770243466185295  0.4651878362652162  0.5289617666489485  T  T  T
  0.9867550000000020  0.3285910000000030  0.0743760000000009  F  F  F
  0.3200879999999980  0.3285910000000030  0.0743760000000009  F  F  F
  0.6534219999999989  0.3285910000000030  0.0743760000000009  F  F  F
  0.9867550000000020  0.6619249999999970  0.0743760000000009  F  F  F
  0.3200879999999980  0.6619249999999970  0.0743760000000009  F  F  F
  0.6534219999999989  0.6619249999999970  0.0743760000000009  F  F  F
  0.3200879999999980  0.9952580000000000  0.0743760000000009  F  F  F
  0.6534219999999989  0.9952580000000000  0.0743760000000009  F  F  F
  0.9867550000000020  0.9952580000000000  0.0743760000000009  F  F  F
  0.2089769999999970  0.1063690000000010  0.1791860000000010  F  F  F
  0.5423109999999980  0.1063690000000010  0.1791860000000010  F  F  F
  0.8756440000000010  0.1063690000000010  0.1791860000000010  F  F  F
  0.2089769999999970  0.4397030000000020  0.1791860000000010  F  F  F
  0.5423109999999980  0.4397030000000020  0.1791860000000010  F  F  F
  0.8756440000000010  0.4397030000000020  0.1791860000000010  F  F  F
  0.2089769999999970  0.7730359999999979  0.1791860000000010  F  F  F
  0.5423109999999980  0.7730359999999979  0.1791860000000010  F  F  F
  0.8756440000000010  0.7730359999999979  0.1791860000000010  F  F  F
  0.1007003793218272  0.5469599154769765  0.2849156894356229  T  T  T
  0.4277247443611710  0.8879468980177001  0.2791415245399917  T  T  T
  0.7625888387667968  0.2156800083907700  0.2875696746824223  T  T  T
  0.0972977708163615  0.2221763634412068  0.2797938282620029  T  T  T
  0.4290233306281819  0.2222947057691169  0.2811782676239623  T  T  T
  0.0997832645154568  0.8858175983757299  0.2799350630772567  T  T  T
  0.7614625582041349  0.8862225069379072  0.2784894135877130  T  T  T
  0.4296328383460338  0.5516042816014711  0.2829315594812474  T  T  T
  0.7597874058034298  0.5478399119146024  0.2814157225623069  T  T  T
  0.3204745396841169  0.6614813291410790  0.3838578726632902  T  T  T
  0.6531666260072294  0.9912186123552671  0.3856732880404425  T  T  T
  0.3259056903823622  0.3215592679117830  0.3837646300863822  T  T  T
  0.9850337001548399  0.9928483127527629  0.3923467542720235  T  T  T
  0.3257283209568541  0.9963259917226966  0.3879966447925133  T  T  T
  0.6385901325241030  0.3212409256481220  0.3958125848863158  T  T  T
  0.9929197553587668  0.6716422321302955  0.3840788198092040  T  T  T
  0.9925177448878023  0.3237767783375484  0.3898124399176399  T  T  T
  0.6577458229505105  0.6618504942093879  0.3905300136986916  T  T  T
