C    O    Pt
   1.00000000000000     
   7.2969551199999998  -4.2128990000000002   0.0000000000000000
   0.0000000000000000   8.4257980000000003   0.0000000000000000
   0.0000000000000000   0.0000000000000000  21.8796350000000004
C    O    Pt
1  2  36  
Selective dynamics
Direct
  0.7071169083700881  0.4351231939432443  0.4779026693992100  T  T  T
  0.9043398126103105  0.3872454227967622  0.4688645585685956  T  T  T
  0.6789803632439571  0.4619790764746664  0.5277912012216990  T  T  T
  0.9867550000000020  0.3285910000000030  0.0743760000000009  F  F  F
  0.3200879999999980  0.3285910000000030  0.0743760000000009  F  F  F
  0.6534219999999989  0.3285910000000030  0.0743760000000009  F  F  F
  0.9867550000000020  0.6619249999999970  0.0743760000000009  F  F  F
  0.3200879999999980  0.6619249999999970  0.0743760000000009  F  F  F
  0.6534219999999989  0.6619249999999970  0.0743760000000009  F  F  F
  0.3200879999999980  0.9952580000000000  0.0743760000000009  F  F  F
  0.6534219999999989  0.9952580000000000  0.0743760000000009  F  F  F
  0.9867550000000020  0.9952580000000000  0.0743760000000009  F  F  F
  0.2089769999999970  0.1063690000000010  0.1791860000000010  F  F  F
  0.5423109999999980  0.1063690000000010  0.1791860000000010  F  F  F
  0.8756440000000010  0.1063690000000010  0.1791860000000010  F  F  F
  0.2089769999999970  0.4397030000000020  0.1791860000000010  F  F  F
  0.5423109999999980  0.4397030000000020  0.1791860000000010  F  F  F
  0.8756440000000010  0.4397030000000020  0.1791860000000010  F  F  F
  0.2089769999999970  0.7730359999999979  0.1791860000000010  F  F  F
  0.5423109999999980  0.7730359999999979  0.1791860000000010  F  F  F
  0.8756440000000010  0.7730359999999979  0.1791860000000010  F  F  F
  0.0977558760981867  0.5438074262405090  0.2799486614353353  T  T  T
  0.4305336376855167  0.8837256344285299  0.2805648073497545  T  T  T
  0.7659364543832881  0.2212061264451544  0.2863708432451968  T  T  T
  0.0954216393049757  0.2138777459663281  0.2810391013334154  T  T  T
  0.4342167643178827  0.2162867011621938  0.2801252571448793  T  T  T
  0.0954061808505094  0.8821997100278854  0.2813666671747228  T  T  T
  0.7653862899524936  0.8808303125090255  0.2788405629897959  T  T  T
  0.4330677024369782  0.5451688871305551  0.2880821517218229  T  T  T
  0.7684530607230143  0.5508118126018285  0.2873040205342346  T  T  T
  0.3233053286313505  0.6609333447903217  0.3873505593977372  T  T  T
  0.6527130762277329  0.9881553525605620  0.3849790616223695  T  T  T
  0.3185462619603949  0.3247014080349134  0.3866268651083551  T  T  T
  0.9893801748356523  0.9932196644254032  0.3917739264147962  T  T  T
  0.3222632241751102  0.9899370847804482  0.3849007602179957  T  T  T
  0.6387821655005035  0.3239273101151474  0.3960517938660090  T  T  T
  0.9959997782728440  0.6658325793186308  0.3850856914786464  T  T  T
  0.9951777647853721  0.3250281127981741  0.3928272231886081  T  T  T
  0.6523510836002263  0.6623713111678697  0.3896118840566019  T  T  T
