C    O    Pt                            
   1.00000000000000     
     7.2969551199999998   -4.2128990000000002    0.0000000000000000
     0.0000000000000000    8.4257980000000003    0.0000000000000000
     0.0000000000000000    0.0000000000000000   21.8796350000000004
   C    O    Pt
     1     2    36
Selective dynamics
Direct
  0.6306069942941015  0.3650842264222593  0.4736096800023349   T   T   T
  1.1281829328478499  0.4829950969879653  0.4582683815193052   T   T   T
  0.6290834999112792  0.3736170291239447  0.5270576577007636   T   T   T
  0.9867550000000023  0.3285910000000030  0.0743760000000009   F   F   F
  0.3200879999999984  0.3285910000000030  0.0743760000000009   F   F   F
  0.6534219999999991  0.3285910000000030  0.0743760000000009   F   F   F
  0.9867550000000023  0.6619249999999965  0.0743760000000009   F   F   F
  0.3200879999999984  0.6619249999999965  0.0743760000000009   F   F   F
  0.6534219999999991  0.6619249999999965  0.0743760000000009   F   F   F
  0.3200879999999984  0.9952579999999998  0.0743760000000009   F   F   F
  0.6534219999999991  0.9952579999999998  0.0743760000000009   F   F   F
  0.9867550000000023  0.9952579999999998  0.0743760000000009   F   F   F
  0.2089769999999973  0.1063690000000008  0.1791860000000014   F   F   F
  0.5423109999999980  0.1063690000000008  0.1791860000000014   F   F   F
  0.8756440000000012  0.1063690000000008  0.1791860000000014   F   F   F
  0.2089769999999973  0.4397030000000015  0.1791860000000014   F   F   F
  0.5423109999999980  0.4397030000000015  0.1791860000000014   F   F   F
  0.8756440000000012  0.4397030000000015  0.1791860000000014   F   F   F
  0.2089769999999973  0.7730359999999976  0.1791860000000014   F   F   F
  0.5423109999999980  0.7730359999999976  0.1791860000000014   F   F   F
  0.8756440000000012  0.7730359999999976  0.1791860000000014   F   F   F
  0.0905209065015879  0.5464600932837352  0.2832449804282653   T   T   T
  0.4262586714183567  0.8734784200211165  0.2831318776231928   T   T   T
  0.7635537185603111  0.2243915317463948  0.2852465909260358   T   T   T
  0.0918866220184198  0.2146166000238790  0.2832843484342976   T   T   T
  0.4251856000127971  0.2148604452178673  0.2801006354984516   T   T   T
  0.0871429575207555  0.8752141950114808  0.2827793651179239   T   T   T
  0.7573960228840939  0.8823034964248597  0.2797035191584646   T   T   T
  0.4285243490930622  0.5437790488082035  0.2838240518613322   T   T   T
  0.7536261964043683  0.5467222237038372  0.2850852587822966   T   T   T
  0.3242112543276258  0.6736895195867708  0.3887646711998595   T   T   T
  0.6571094521054996  0.9987517031160927  0.3872066493130810   T   T   T
  0.3164937740951443  0.3270674179471035  0.3851228552592399   T   T   T
  0.9808447670712295  0.9997582370917610  0.3894800060823114   T   T   T
  0.3190796218284441  1.0049926412445525  0.3858654874911379   T   T   T
  0.6532035313418821  0.3306784363939877  0.3934836404751000   T   T   T
  0.9889941836976530  0.6759735899737458  0.3872092332683454   T   T   T
  0.9864797684479936  0.3220752412502506  0.3921207688580350   T   T   T
  0.6456920869224200  0.6629107549069505  0.3855075217264006   T   T   T
 
 -0.14666635E-01  0.13807215E-02  0.45223079E-02
  0.99899742E-02  0.17418327E-02  0.22910687E-02
 -0.16348329E-02 -0.61879859E-02  0.14182843E-02
  0.00000000E+00  0.00000000E+00  0.00000000E+00
  0.00000000E+00  0.00000000E+00  0.00000000E+00
  0.00000000E+00  0.00000000E+00  0.00000000E+00
  0.00000000E+00  0.00000000E+00  0.00000000E+00
  0.00000000E+00  0.00000000E+00  0.00000000E+00
  0.00000000E+00  0.00000000E+00  0.00000000E+00
  0.00000000E+00  0.00000000E+00  0.00000000E+00
  0.00000000E+00  0.00000000E+00  0.00000000E+00
  0.00000000E+00  0.00000000E+00  0.00000000E+00
  0.00000000E+00  0.00000000E+00  0.00000000E+00
  0.00000000E+00  0.00000000E+00  0.00000000E+00
  0.00000000E+00  0.00000000E+00  0.00000000E+00
  0.00000000E+00  0.00000000E+00  0.00000000E+00
  0.00000000E+00  0.00000000E+00  0.00000000E+00
  0.00000000E+00  0.00000000E+00  0.00000000E+00
  0.00000000E+00  0.00000000E+00  0.00000000E+00
  0.00000000E+00  0.00000000E+00  0.00000000E+00
  0.00000000E+00  0.00000000E+00  0.00000000E+00
  0.62766600E-03  0.12661107E-02  0.55244771E-03
  0.10437718E-02  0.35107494E-04  0.76542109E-03
  0.52556953E-03  0.10962413E-02 -0.75889894E-03
 -0.65420423E-04  0.13932763E-03 -0.15261851E-02
  0.26540733E-03 -0.17027604E-02  0.16870373E-02
  0.96591816E-03  0.66907894E-03  0.42420574E-03
  0.13481337E-02  0.12801308E-02  0.66146860E-03
 -0.61259599E-03 -0.67270402E-03 -0.64973724E-03
 -0.35762070E-03  0.33548580E-03 -0.48533735E-03
 -0.11680715E-02  0.77506389E-03  0.74365553E-03
  0.59019290E-03 -0.10123791E-02 -0.77588180E-03
 -0.19760680E-03 -0.14332902E-02  0.99900206E-04
 -0.68943607E-03  0.19320676E-03 -0.19248966E-03
  0.33136610E-03 -0.13918395E-03 -0.32563871E-03
  0.72262220E-03  0.25526762E-03  0.37566719E-02
 -0.56680630E-03  0.13760291E-02 -0.18884117E-02
 -0.14777828E-02  0.65953499E-03 -0.11172728E-02
  0.28727242E-03  0.90117737E-04  0.60197451E-03
 
           1
  0.500000000000000     
  0.51819553E+00 -0.14412468E-01 -0.14415659E-01  0.53260959E+00
  0.62960201E+00  0.36466367E+00  0.47371303E+00
  0.12886746E+00  0.48344073E+00  0.45832074E+00
  0.62897148E+00  0.37319381E+00  0.52709007E+00
  0.98675500E+00  0.32859100E+00  0.74376000E-01
  0.32008800E+00  0.32859100E+00  0.74376000E-01
  0.65342200E+00  0.32859100E+00  0.74376000E-01
  0.98675500E+00  0.66192500E+00  0.74376000E-01
  0.32008800E+00  0.66192500E+00  0.74376000E-01
  0.65342200E+00  0.66192500E+00  0.74376000E-01
  0.32008800E+00  0.99525800E+00  0.74376000E-01
  0.65342200E+00  0.99525800E+00  0.74376000E-01
  0.98675500E+00  0.99525800E+00  0.74376000E-01
  0.20897700E+00  0.10636900E+00  0.17918600E+00
  0.54231100E+00  0.10636900E+00  0.17918600E+00
  0.87564400E+00  0.10636900E+00  0.17918600E+00
  0.20897700E+00  0.43970300E+00  0.17918600E+00
  0.54231100E+00  0.43970300E+00  0.17918600E+00
  0.87564400E+00  0.43970300E+00  0.17918600E+00
  0.20897700E+00  0.77303600E+00  0.17918600E+00
  0.54231100E+00  0.77303600E+00  0.17918600E+00
  0.87564400E+00  0.77303600E+00  0.17918600E+00
  0.90563915E-01  0.54655673E+00  0.28325761E+00
  0.42633019E+00  0.87351626E+00  0.28314937E+00
  0.76358973E+00  0.22447459E+00  0.28522925E+00
  0.91882139E-01  0.21462263E+00  0.28324947E+00
  0.42520379E+00  0.21476849E+00  0.28013919E+00
  0.87209144E-01  0.87528699E+00  0.28278906E+00
  0.75748840E+00  0.88242565E+00  0.27971864E+00
  0.42848237E+00  0.54371814E+00  0.28380920E+00
  0.75360169E+00  0.54672988E+00  0.28507417E+00
  0.32413122E+00  0.67369549E+00  0.38878167E+00
  0.65714989E+00  0.99871185E+00  0.38718892E+00
  0.31648023E+00  0.32697559E+00  0.38512514E+00
  0.98079753E+00  0.99974608E+00  0.38947561E+00
  0.31910233E+00  0.49957347E-02  0.38585805E+00
  0.65325305E+00  0.33071834E+00  0.39356949E+00
  0.98895535E+00  0.67603583E+00  0.38716608E+00
  0.98637851E+00  0.32206375E+00  0.39209524E+00
  0.64571177E+00  0.66292594E+00  0.38552128E+00
  0.00000000E+00  0.00000000E+00  0.00000000E+00
  0.00000000E+00  0.00000000E+00  0.00000000E+00
  0.00000000E+00  0.00000000E+00  0.00000000E+00
  0.00000000E+00  0.00000000E+00  0.00000000E+00
  0.00000000E+00  0.00000000E+00  0.00000000E+00
  0.00000000E+00  0.00000000E+00  0.00000000E+00
  0.00000000E+00  0.00000000E+00  0.00000000E+00
  0.00000000E+00  0.00000000E+00  0.00000000E+00
  0.00000000E+00  0.00000000E+00  0.00000000E+00
  0.00000000E+00  0.00000000E+00  0.00000000E+00
  0.00000000E+00  0.00000000E+00  0.00000000E+00
  0.00000000E+00  0.00000000E+00  0.00000000E+00
  0.00000000E+00  0.00000000E+00  0.00000000E+00
  0.00000000E+00  0.00000000E+00  0.00000000E+00
  0.00000000E+00  0.00000000E+00  0.00000000E+00
  0.00000000E+00  0.00000000E+00  0.00000000E+00
  0.00000000E+00  0.00000000E+00  0.00000000E+00
  0.00000000E+00  0.00000000E+00  0.00000000E+00
  0.00000000E+00  0.00000000E+00  0.00000000E+00
  0.00000000E+00  0.00000000E+00  0.00000000E+00
  0.00000000E+00  0.00000000E+00  0.00000000E+00
  0.00000000E+00  0.00000000E+00  0.00000000E+00
  0.00000000E+00  0.00000000E+00  0.00000000E+00
  0.00000000E+00  0.00000000E+00  0.00000000E+00
  0.00000000E+00  0.00000000E+00  0.00000000E+00
  0.00000000E+00  0.00000000E+00  0.00000000E+00
  0.00000000E+00  0.00000000E+00  0.00000000E+00
  0.00000000E+00  0.00000000E+00  0.00000000E+00
  0.00000000E+00  0.00000000E+00  0.00000000E+00
  0.00000000E+00  0.00000000E+00  0.00000000E+00
  0.00000000E+00  0.00000000E+00  0.00000000E+00
  0.00000000E+00  0.00000000E+00  0.00000000E+00
  0.00000000E+00  0.00000000E+00  0.00000000E+00
  0.00000000E+00  0.00000000E+00  0.00000000E+00
  0.00000000E+00  0.00000000E+00  0.00000000E+00
  0.00000000E+00  0.00000000E+00  0.00000000E+00
  0.00000000E+00  0.00000000E+00  0.00000000E+00
  0.00000000E+00  0.00000000E+00  0.00000000E+00
  0.00000000E+00  0.00000000E+00  0.00000000E+00
  0.00000000E+00  0.00000000E+00  0.00000000E+00
  0.00000000E+00  0.00000000E+00  0.00000000E+00
  0.00000000E+00  0.00000000E+00  0.00000000E+00
  0.00000000E+00  0.00000000E+00  0.00000000E+00
  0.00000000E+00  0.00000000E+00  0.00000000E+00
  0.00000000E+00  0.00000000E+00  0.00000000E+00
  0.00000000E+00  0.00000000E+00  0.00000000E+00
  0.00000000E+00  0.00000000E+00  0.00000000E+00
  0.00000000E+00  0.00000000E+00  0.00000000E+00
  0.00000000E+00  0.00000000E+00  0.00000000E+00
  0.00000000E+00  0.00000000E+00  0.00000000E+00
  0.00000000E+00  0.00000000E+00  0.00000000E+00
  0.00000000E+00  0.00000000E+00  0.00000000E+00
  0.00000000E+00  0.00000000E+00  0.00000000E+00
  0.00000000E+00  0.00000000E+00  0.00000000E+00
  0.00000000E+00  0.00000000E+00  0.00000000E+00
  0.00000000E+00  0.00000000E+00  0.00000000E+00
  0.00000000E+00  0.00000000E+00  0.00000000E+00
  0.00000000E+00  0.00000000E+00  0.00000000E+00
  0.00000000E+00  0.00000000E+00  0.00000000E+00
  0.00000000E+00  0.00000000E+00  0.00000000E+00
  0.00000000E+00  0.00000000E+00  0.00000000E+00
  0.00000000E+00  0.00000000E+00  0.00000000E+00
  0.00000000E+00  0.00000000E+00  0.00000000E+00
  0.00000000E+00  0.00000000E+00  0.00000000E+00
  0.00000000E+00  0.00000000E+00  0.00000000E+00
  0.00000000E+00  0.00000000E+00  0.00000000E+00
  0.00000000E+00  0.00000000E+00  0.00000000E+00
  0.00000000E+00  0.00000000E+00  0.00000000E+00
  0.00000000E+00  0.00000000E+00  0.00000000E+00
  0.00000000E+00  0.00000000E+00  0.00000000E+00
  0.00000000E+00  0.00000000E+00  0.00000000E+00
  0.00000000E+00  0.00000000E+00  0.00000000E+00
  0.00000000E+00  0.00000000E+00  0.00000000E+00
  0.00000000E+00  0.00000000E+00  0.00000000E+00
  0.00000000E+00  0.00000000E+00  0.00000000E+00
  0.00000000E+00  0.00000000E+00  0.00000000E+00
  0.00000000E+00  0.00000000E+00  0.00000000E+00
  0.00000000E+00  0.00000000E+00  0.00000000E+00
