C    O    Pt
   1.00000000000000     
   7.2969551199999998  -4.2128990000000002   0.0000000000000000
   0.0000000000000000   8.4257980000000003   0.0000000000000000
   0.0000000000000000   0.0000000000000000  21.8796350000000004
C    O    Pt
1  2  36  
Selective dynamics
Direct
  0.7012243872619017  0.4387584609641751  0.4801635131754755  T  T  T
  0.9063584508613155  0.3874467363530890  0.4681379446321415  T  T  T
  0.6730878421357707  0.4656143434955972  0.5300520449979644  T  T  T
  0.9867550000000020  0.3285910000000030  0.0743760000000009  F  F  F
  0.3200879999999980  0.3285910000000030  0.0743760000000009  F  F  F
  0.6534219999999989  0.3285910000000030  0.0743760000000009  F  F  F
  0.9867550000000020  0.6619249999999970  0.0743760000000009  F  F  F
  0.3200879999999980  0.6619249999999970  0.0743760000000009  F  F  F
  0.6534219999999989  0.6619249999999970  0.0743760000000009  F  F  F
  0.3200879999999980  0.9952580000000000  0.0743760000000009  F  F  F
  0.6534219999999989  0.9952580000000000  0.0743760000000009  F  F  F
  0.9867550000000020  0.9952580000000000  0.0743760000000009  F  F  F
  0.2089769999999970  0.1063690000000010  0.1791860000000010  F  F  F
  0.5423109999999980  0.1063690000000010  0.1791860000000010  F  F  F
  0.8756440000000010  0.1063690000000010  0.1791860000000010  F  F  F
  0.2089769999999970  0.4397030000000020  0.1791860000000010  F  F  F
  0.5423109999999980  0.4397030000000020  0.1791860000000010  F  F  F
  0.8756440000000010  0.4397030000000020  0.1791860000000010  F  F  F
  0.2089769999999970  0.7730359999999979  0.1791860000000010  F  F  F
  0.5423109999999980  0.7730359999999979  0.1791860000000010  F  F  F
  0.8756440000000010  0.7730359999999979  0.1791860000000010  F  F  F
  0.0938486926270814  0.5494556330532941  0.2820809531688530  T  T  T
  0.4343738025656587  0.8884042475978891  0.2779104266402356  T  T  T
  0.7593229508916205  0.2175925885099625  0.2847058443106893  T  T  T
  0.0978108529888645  0.2174348260107250  0.2884957319944464  T  T  T
  0.4335799855152350  0.2210193154019199  0.2819647934765304  T  T  T
  0.1023173113198394  0.8861854789582772  0.2797114845561669  T  T  T
  0.7685818719274401  0.8870644094573870  0.2857016520755910  T  T  T
  0.4340021093817997  0.5498591309985726  0.2867141742353200  T  T  T
  0.7614780620532053  0.5482093308269915  0.2829680875053346  T  T  T
  0.3222265137326059  0.6623429519065553  0.3842728398844974  T  T  T
  0.6517288810264403  0.9851783744878670  0.3902233945202079  T  T  T
  0.3226703390759417  0.3267912535170502  0.3895193621125284  T  T  T
  0.9884058134289569  0.9921843348011591  0.3871978740347329  T  T  T
  0.3213117886688244  0.9963909860799983  0.3845065798625980  T  T  T
  0.6387885706337054  0.3184686224222623  0.3902094973619112  T  T  T
  0.9983178533036731  0.6656128955687598  0.3888952606470319  T  T  T
  0.9941021287897167  0.3208995559308362  0.3881852679971999  T  T  T
  0.6530904621045530  0.6615284037118089  0.3890434672128405  T  T  T
