C    O    Pt
   1.00000000000000     
   7.2969551199999998  -4.2128990000000002   0.0000000000000000
   0.0000000000000000   8.4257980000000003   0.0000000000000000
   0.0000000000000000   0.0000000000000000  21.8796350000000004
C    O    Pt
1  2  36  
Selective dynamics
Direct
  0.7015430242597416  0.4311758317223474  0.4781767734325575  T  T  T
  0.9024527070669867  0.3858999111305468  0.4673738379297925  T  T  T
  0.6734064791336105  0.4580317142537694  0.5280653052550465  T  T  T
  0.9867550000000020  0.3285910000000030  0.0743760000000009  F  F  F
  0.3200879999999980  0.3285910000000030  0.0743760000000009  F  F  F
  0.6534219999999989  0.3285910000000030  0.0743760000000009  F  F  F
  0.9867550000000020  0.6619249999999970  0.0743760000000009  F  F  F
  0.3200879999999980  0.6619249999999970  0.0743760000000009  F  F  F
  0.6534219999999989  0.6619249999999970  0.0743760000000009  F  F  F
  0.3200879999999980  0.9952580000000000  0.0743760000000009  F  F  F
  0.6534219999999989  0.9952580000000000  0.0743760000000009  F  F  F
  0.9867550000000020  0.9952580000000000  0.0743760000000009  F  F  F
  0.2089769999999970  0.1063690000000010  0.1791860000000010  F  F  F
  0.5423109999999980  0.1063690000000010  0.1791860000000010  F  F  F
  0.8756440000000010  0.1063690000000010  0.1791860000000010  F  F  F
  0.2089769999999970  0.4397030000000020  0.1791860000000010  F  F  F
  0.5423109999999980  0.4397030000000020  0.1791860000000010  F  F  F
  0.8756440000000010  0.4397030000000020  0.1791860000000010  F  F  F
  0.2089769999999970  0.7730359999999979  0.1791860000000010  F  F  F
  0.5423109999999980  0.7730359999999979  0.1791860000000010  F  F  F
  0.8756440000000010  0.7730359999999979  0.1791860000000010  F  F  F
  0.0928468845281156  0.5472682264048874  0.2781230081787721  T  T  T
  0.4287384073981940  0.8860518637777319  0.2797013164511115  T  T  T
  0.7684938929569279  0.2188573547869831  0.2836905009625990  T  T  T
  0.0980324223265350  0.2175426497479321  0.2853135865931227  T  T  T
  0.4378793764379916  0.2136058411601865  0.2861755534591541  T  T  T
  0.0977457341486682  0.8870832685101468  0.2829866203304988  T  T  T
  0.7634637527600019  0.8784307210599769  0.2816569256309235  T  T  T
  0.4291951691457431  0.5492542095253180  0.2853858432154571  T  T  T
  0.7621938221851038  0.5492338883680777  0.2854640850812321  T  T  T
  0.3282023975282935  0.6614458257490484  0.3822493917046342  T  T  T
  0.6551680645883159  0.9893139880687885  0.3882918729483982  T  T  T
  0.3178440233042363  0.3252601390694399  0.3907844103387004  T  T  T
  0.9855294177976646  0.9864513223582795  0.3897205504132216  T  T  T
  0.3233239891274244  0.9937876935021529  0.3839171935935989  T  T  T
  0.6479151973768075  0.3208608417440993  0.3957055936517556  T  T  T
  0.9897819512612063  0.6715745702355562  0.3859853560595624  T  T  T
  0.9960983267064994  0.3251002576574093  0.3925148972094756  T  T  T
  0.6597436331686647  0.6667419407213566  0.3896649704850438  T  T  T
