C    O    Pt                            
   1.00000000000000     
     7.2969551199999998   -4.2128990000000002    0.0000000000000000
     0.0000000000000000    8.4257980000000003    0.0000000000000000
     0.0000000000000000    0.0000000000000000   21.8796350000000004
   C    O    Pt
     1     2    36
Selective dynamics
Direct
  0.6964782713460794  0.4258126044211459  0.4766997971780190   T   T   T
  0.9083985011239927  0.3845423463892679  0.4651687393581214   T   T   T
  0.6743658591676892  0.4583741725259877  0.5255889940061863   T   T   T
  0.9867550000000023  0.3285910000000031  0.0743760000000009   F   F   F
  0.3200879999999984  0.3285910000000030  0.0743760000000009   F   F   F
  0.6534219999999991  0.3285910000000031  0.0743760000000009   F   F   F
  0.9867550000000023  0.6619249999999965  0.0743760000000009   F   F   F
  0.3200879999999984  0.6619249999999965  0.0743760000000009   F   F   F
  0.6534219999999991  0.6619249999999965  0.0743760000000009   F   F   F
  0.3200879999999984  0.9952579999999998  0.0743760000000009   F   F   F
  0.6534219999999991  0.9952579999999998  0.0743760000000009   F   F   F
  0.9867550000000023  0.9952579999999996  0.0743760000000009   F   F   F
  0.2089769999999972  0.1063690000000008  0.1791860000000014   F   F   F
  0.5423109999999980  0.1063690000000008  0.1791860000000014   F   F   F
  0.8756440000000012  0.1063690000000008  0.1791860000000014   F   F   F
  0.2089769999999972  0.4397030000000015  0.1791860000000014   F   F   F
  0.5423109999999980  0.4397030000000015  0.1791860000000014   F   F   F
  0.8756440000000012  0.4397030000000015  0.1791860000000014   F   F   F
  0.2089769999999972  0.7730359999999976  0.1791860000000014   F   F   F
  0.5423109999999980  0.7730359999999976  0.1791860000000014   F   F   F
  0.8756440000000012  0.7730359999999977  0.1791860000000014   F   F   F
  0.0981975976364873  0.5477601566250956  0.2803797318364975   T   T   T
  0.4336530446721400  0.8848998911721224  0.2798704108980634   T   T   T
  0.7632762356412800  0.2210825098737660  0.2824093043279974   T   T   T
  0.0956067767499358  0.2185677654868096  0.2833911191067462   T   T   T
  0.4359613531692239  0.2196150593752249  0.2831204675702755   T   T   T
  0.1013156177918471  0.8825677662997029  0.2795832170498821   T   T   T
  0.7638734163687551  0.8811336234399973  0.2820143995680682   T   T   T
  0.4326109509422239  0.5489115865124830  0.2811509884116533   T   T   T
  0.7650942020575441  0.5494453595345433  0.2804163297593851   T   T   T
  0.3253912745595056  0.6584622922517162  0.3896737292208952   T   T   T
  0.6508076949171558  0.9888641158606204  0.3823305887043299   T   T   T
  0.3230967432685091  0.3261001789415013  0.3858715660736329   T   T   T
  0.9881235908243038  0.9912275953757306  0.3879885545971025   T   T   T
  0.3199470887388932  0.9926882282434099  0.3849448687409591   T   T   T
  0.6417124391826552  0.3241458615745825  0.3949379365425371   T   T   T
  0.9958296216993330  0.6681332489188659  0.3820647471163942   T   T   T
  0.9956211202254525  0.3239276108397361  0.3917954273896142   T   T   T
  0.6570096994479455  0.6659037775233380  0.3864911666096909   T   T   T
 
  0.00000000E+00  0.00000000E+00  0.00000000E+00
  0.00000000E+00  0.00000000E+00  0.00000000E+00
  0.00000000E+00  0.00000000E+00  0.00000000E+00
  0.00000000E+00  0.00000000E+00  0.00000000E+00
  0.00000000E+00  0.00000000E+00  0.00000000E+00
  0.00000000E+00  0.00000000E+00  0.00000000E+00
  0.00000000E+00  0.00000000E+00  0.00000000E+00
  0.00000000E+00  0.00000000E+00  0.00000000E+00
  0.00000000E+00  0.00000000E+00  0.00000000E+00
  0.00000000E+00  0.00000000E+00  0.00000000E+00
  0.00000000E+00  0.00000000E+00  0.00000000E+00
  0.00000000E+00  0.00000000E+00  0.00000000E+00
  0.00000000E+00  0.00000000E+00  0.00000000E+00
  0.00000000E+00  0.00000000E+00  0.00000000E+00
  0.00000000E+00  0.00000000E+00  0.00000000E+00
  0.00000000E+00  0.00000000E+00  0.00000000E+00
  0.00000000E+00  0.00000000E+00  0.00000000E+00
  0.00000000E+00  0.00000000E+00  0.00000000E+00
  0.00000000E+00  0.00000000E+00  0.00000000E+00
  0.00000000E+00  0.00000000E+00  0.00000000E+00
  0.00000000E+00  0.00000000E+00  0.00000000E+00
  0.00000000E+00  0.00000000E+00  0.00000000E+00
  0.00000000E+00  0.00000000E+00  0.00000000E+00
  0.00000000E+00  0.00000000E+00  0.00000000E+00
  0.00000000E+00  0.00000000E+00  0.00000000E+00
  0.00000000E+00  0.00000000E+00  0.00000000E+00
  0.00000000E+00  0.00000000E+00  0.00000000E+00
  0.00000000E+00  0.00000000E+00  0.00000000E+00
  0.00000000E+00  0.00000000E+00  0.00000000E+00
  0.00000000E+00  0.00000000E+00  0.00000000E+00
  0.00000000E+00  0.00000000E+00  0.00000000E+00
  0.00000000E+00  0.00000000E+00  0.00000000E+00
  0.00000000E+00  0.00000000E+00  0.00000000E+00
  0.00000000E+00  0.00000000E+00  0.00000000E+00
  0.00000000E+00  0.00000000E+00  0.00000000E+00
  0.00000000E+00  0.00000000E+00  0.00000000E+00
  0.00000000E+00  0.00000000E+00  0.00000000E+00
  0.00000000E+00  0.00000000E+00  0.00000000E+00
  0.00000000E+00  0.00000000E+00  0.00000000E+00
