C    O    Pt
   1.00000000000000     
   7.2969551199999998  -4.2128990000000002   0.0000000000000000
   0.0000000000000000   8.4257980000000003   0.0000000000000000
   0.0000000000000000   0.0000000000000000  21.8796350000000004
C    O    Pt
1  2  36  
Selective dynamics
Direct
  0.6999774789241836  0.4308268405917010  0.4769436907704527  T  T  T
  0.9068757822986268  0.3827228311555163  0.4645312034946340  T  T  T
  0.6718409337980525  0.4576827231231230  0.5268322225929416  T  T  T
  0.9867550000000020  0.3285910000000030  0.0743760000000009  F  F  F
  0.3200879999999980  0.3285910000000030  0.0743760000000009  F  F  F
  0.6534219999999989  0.3285910000000030  0.0743760000000009  F  F  F
  0.9867550000000020  0.6619249999999970  0.0743760000000009  F  F  F
  0.3200879999999980  0.6619249999999970  0.0743760000000009  F  F  F
  0.6534219999999989  0.6619249999999970  0.0743760000000009  F  F  F
  0.3200879999999980  0.9952580000000000  0.0743760000000009  F  F  F
  0.6534219999999989  0.9952580000000000  0.0743760000000009  F  F  F
  0.9867550000000020  0.9952580000000000  0.0743760000000009  F  F  F
  0.2089769999999970  0.1063690000000010  0.1791860000000010  F  F  F
  0.5423109999999980  0.1063690000000010  0.1791860000000010  F  F  F
  0.8756440000000010  0.1063690000000010  0.1791860000000010  F  F  F
  0.2089769999999970  0.4397030000000020  0.1791860000000010  F  F  F
  0.5423109999999980  0.4397030000000020  0.1791860000000010  F  F  F
  0.8756440000000010  0.4397030000000020  0.1791860000000010  F  F  F
  0.2089769999999970  0.7730359999999979  0.1791860000000010  F  F  F
  0.5423109999999980  0.7730359999999979  0.1791860000000010  F  F  F
  0.8756440000000010  0.7730359999999979  0.1791860000000010  F  F  F
  0.0963132887526298  0.5471771806575976  0.2788312913528775  T  T  T
  0.4356674951073112  0.8873784691551002  0.2786346252344134  T  T  T
  0.7617674221216590  0.2221896538185479  0.2815929886291272  T  T  T
  0.0966275877905526  0.2194624068568755  0.2828090004489479  T  T  T
  0.4375171229148110  0.2206614067278077  0.2832143644731216  T  T  T
  0.1028012159119016  0.8811265911086137  0.2783779814012798  T  T  T
  0.7610575298133909  0.8792492378700355  0.2823576755470674  T  T  T
  0.4339602567924444  0.5481432014820673  0.2800325689093820  T  T  T
  0.7646993269043955  0.5485930937469661  0.2791421198831322  T  T  T
  0.3256937217783396  0.6573574525969776  0.3912566802404818  T  T  T
  0.6508713878194839  0.9878229148957315  0.3816401415553865  T  T  T
  0.3245849389896417  0.3261573404470121  0.3859753290971384  T  T  T
  0.9876632931223490  0.9906120051670630  0.3887397363044134  T  T  T
  0.3203568876259856  0.9945018914030880  0.3848501171399220  T  T  T
  0.6412519847336704  0.3208649471403129  0.3944450535164030  T  T  T
  0.9958044432716263  0.6682751051963365  0.3818521826318385  T  T  T
  0.9949997697405916  0.3246553781623857  0.3920876952915630  T  T  T
  0.6569974861336020  0.6669622089448118  0.3866933848532471  T  T  T
