C    O    Pt
   1.00000000000000     
   7.2969551199999998  -4.2128990000000002   0.0000000000000000
   0.0000000000000000   8.4257980000000003   0.0000000000000000
   0.0000000000000000   0.0000000000000000  21.8796350000000004
C    O    Pt
1  2  36  
Selective dynamics
Direct
  0.6977400625474638  0.4326678265004649  0.4709326980383913  T  T  T
  0.9113820016513327  0.3848363256286695  0.4642916275614127  T  T  T
  0.6696035174213327  0.4595237090318869  0.5208212298608803  T  T  T
  0.9867550000000020  0.3285910000000030  0.0743760000000009  F  F  F
  0.3200879999999980  0.3285910000000030  0.0743760000000009  F  F  F
  0.6534219999999989  0.3285910000000030  0.0743760000000009  F  F  F
  0.9867550000000020  0.6619249999999970  0.0743760000000009  F  F  F
  0.3200879999999980  0.6619249999999970  0.0743760000000009  F  F  F
  0.6534219999999989  0.6619249999999970  0.0743760000000009  F  F  F
  0.3200879999999980  0.9952580000000000  0.0743760000000009  F  F  F
  0.6534219999999989  0.9952580000000000  0.0743760000000009  F  F  F
  0.9867550000000020  0.9952580000000000  0.0743760000000009  F  F  F
  0.2089769999999970  0.1063690000000010  0.1791860000000010  F  F  F
  0.5423109999999980  0.1063690000000010  0.1791860000000010  F  F  F
  0.8756440000000010  0.1063690000000010  0.1791860000000010  F  F  F
  0.2089769999999970  0.4397030000000020  0.1791860000000010  F  F  F
  0.5423109999999980  0.4397030000000020  0.1791860000000010  F  F  F
  0.8756440000000010  0.4397030000000020  0.1791860000000010  F  F  F
  0.2089769999999970  0.7730359999999979  0.1791860000000010  F  F  F
  0.5423109999999980  0.7730359999999979  0.1791860000000010  F  F  F
  0.8756440000000010  0.7730359999999979  0.1791860000000010  F  F  F
  0.0945373177729011  0.5497166768842142  0.2865839088876441  T  T  T
  0.4348151909268747  0.8853585022759025  0.2837098645948083  T  T  T
  0.7687430679981833  0.2144555620592452  0.2813123105064955  T  T  T
  0.0908643068116909  0.2151616283390549  0.2817438440995980  T  T  T
  0.4341701823223206  0.2219211750852204  0.2854326787062357  T  T  T
  0.1024691941737663  0.8839576838386697  0.2840693668056342  T  T  T
  0.7611242308377258  0.8871417839309867  0.2840368908808036  T  T  T
  0.4292109692853799  0.5539636673719016  0.2784554169508702  T  T  T
  0.7617260036456758  0.5473377608105036  0.2879665922816895  T  T  T
  0.3272393352375726  0.6641798975482274  0.3836960093476021  T  T  T
  0.6570077193900306  0.9916741436209715  0.3887215474311433  T  T  T
  0.3178564998963731  0.3262762809985367  0.3863188992024024  T  T  T
  0.9906271146773645  0.9896033768197270  0.3880314095568927  T  T  T
  0.3232079868764547  0.9885281608051379  0.3916206438286502  T  T  T
  0.6463355131868113  0.3225261451568916  0.3938921015242293  T  T  T
  0.9914914849599892  0.6634045869384475  0.3832560161756399  T  T  T
  0.9984808416762531  0.3201927331213949  0.3893675048656148  T  T  T
  0.6559246770116797  0.6653516239730337  0.3908117798326137  T  T  T
