C    O    Pt
   1.00000000000000     
   7.2969551199999998  -4.2128990000000002   0.0000000000000000
   0.0000000000000000   8.4257980000000003   0.0000000000000000
   0.0000000000000000   0.0000000000000000  21.8796350000000004
C    O    Pt
1  2  36  
Selective dynamics
Direct
  0.7030670384212671  0.4334477732169782  0.4757376197462274  T  T  T
  0.9016746055542658  0.3803298111059463  0.4665529091199139  T  T  T
  0.6749304932951360  0.4603036557484003  0.5256261515687163  T  T  T
  0.9867550000000020  0.3285910000000030  0.0743760000000009  F  F  F
  0.3200879999999980  0.3285910000000030  0.0743760000000009  F  F  F
  0.6534219999999989  0.3285910000000030  0.0743760000000009  F  F  F
  0.9867550000000020  0.6619249999999970  0.0743760000000009  F  F  F
  0.3200879999999980  0.6619249999999970  0.0743760000000009  F  F  F
  0.6534219999999989  0.6619249999999970  0.0743760000000009  F  F  F
  0.3200879999999980  0.9952580000000000  0.0743760000000009  F  F  F
  0.6534219999999989  0.9952580000000000  0.0743760000000009  F  F  F
  0.9867550000000020  0.9952580000000000  0.0743760000000009  F  F  F
  0.2089769999999970  0.1063690000000010  0.1791860000000010  F  F  F
  0.5423109999999980  0.1063690000000010  0.1791860000000010  F  F  F
  0.8756440000000010  0.1063690000000010  0.1791860000000010  F  F  F
  0.2089769999999970  0.4397030000000020  0.1791860000000010  F  F  F
  0.5423109999999980  0.4397030000000020  0.1791860000000010  F  F  F
  0.8756440000000010  0.4397030000000020  0.1791860000000010  F  F  F
  0.2089769999999970  0.7730359999999979  0.1791860000000010  F  F  F
  0.5423109999999980  0.7730359999999979  0.1791860000000010  F  F  F
  0.8756440000000010  0.7730359999999979  0.1791860000000010  F  F  F
  0.1002990162359872  0.5442273046619085  0.2878865638504281  T  T  T
  0.4342601478660036  0.8859100744207880  0.2855050559366847  T  T  T
  0.7680982117536942  0.2213681466493665  0.2854606821334773  T  T  T
  0.0998471790820790  0.2188521366847378  0.2872268481169338  T  T  T
  0.4328044656297725  0.2172315657362506  0.2867134913019230  T  T  T
  0.0994923830797122  0.8807259710581176  0.2849221938480517  T  T  T
  0.7648756903569432  0.8809591395274635  0.2851889165708743  T  T  T
  0.4343945215225816  0.5549747926520286  0.2827793584849465  T  T  T
  0.7609738499376311  0.5505276902252061  0.2817568779296795  T  T  T
  0.3277833230181356  0.6656353741988031  0.3838544986022241  T  T  T
  0.6490306024773694  0.9876984965288317  0.3863541435385584  T  T  T
  0.3248990855366678  0.3259295634301170  0.3874024430481625  T  T  T
  0.9895414780080065  0.9905863533482994  0.3925712954017577  T  T  T
  0.3252532601913101  0.9940846397519697  0.3917136847405198  T  T  T
  0.6445829155819058  0.3184787272030266  0.3918897232284559  T  T  T
  0.9987194140630422  0.6639827750102535  0.3875805065256088  T  T  T
  0.9934824579335768  0.3202606847757477  0.3872017115149019  T  T  T
  0.6528065967518567  0.6624797341137917  0.3919724994109412  T  T  T
