C    O    Pt
   1.00000000000000     
   7.2969551199999998  -4.2128990000000002   0.0000000000000000
   0.0000000000000000   8.4257980000000003   0.0000000000000000
   0.0000000000000000   0.0000000000000000  21.8796350000000004
C    O    Pt
1  2  36  
Selective dynamics
Direct
  0.7006101041606150  0.4309072788596583  0.4713902091077502  T  T  T
  0.9029013494980465  0.3809849684833147  0.4642000211439175  T  T  T
  0.6724735590344839  0.4577631613910803  0.5212787409302392  T  T  T
  0.9867550000000020  0.3285910000000030  0.0743760000000009  F  F  F
  0.3200879999999980  0.3285910000000030  0.0743760000000009  F  F  F
  0.6534219999999989  0.3285910000000030  0.0743760000000009  F  F  F
  0.9867550000000020  0.6619249999999970  0.0743760000000009  F  F  F
  0.3200879999999980  0.6619249999999970  0.0743760000000009  F  F  F
  0.6534219999999989  0.6619249999999970  0.0743760000000009  F  F  F
  0.3200879999999980  0.9952580000000000  0.0743760000000009  F  F  F
  0.6534219999999989  0.9952580000000000  0.0743760000000009  F  F  F
  0.9867550000000020  0.9952580000000000  0.0743760000000009  F  F  F
  0.2089769999999970  0.1063690000000010  0.1791860000000010  F  F  F
  0.5423109999999980  0.1063690000000010  0.1791860000000010  F  F  F
  0.8756440000000010  0.1063690000000010  0.1791860000000010  F  F  F
  0.2089769999999970  0.4397030000000020  0.1791860000000010  F  F  F
  0.5423109999999980  0.4397030000000020  0.1791860000000010  F  F  F
  0.8756440000000010  0.4397030000000020  0.1791860000000010  F  F  F
  0.2089769999999970  0.7730359999999979  0.1791860000000010  F  F  F
  0.5423109999999980  0.7730359999999979  0.1791860000000010  F  F  F
  0.8756440000000010  0.7730359999999979  0.1791860000000010  F  F  F
  0.1018901880121959  0.5504369305410589  0.2784480822654536  T  T  T
  0.4321202524178985  0.8815631005140289  0.2857886001097525  T  T  T
  0.7613544369542418  0.2141954186893812  0.2870336349619326  T  T  T
  0.0955380818285807  0.2211384201375541  0.2854390323475533  T  T  T
  0.4335542338516264  0.2193334592347235  0.2845861385757202  T  T  T
  0.0983332907169717  0.8809614189119160  0.2849476385087691  T  T  T
  0.7664236832106585  0.8865431704492845  0.2838740729064358  T  T  T
  0.4315693005934593  0.5491334416039383  0.2852486769596420  T  T  T
  0.7629387685237231  0.5464838470429670  0.2853329844043315  T  T  T
  0.3208450321111142  0.6660635047193112  0.3912410854128444  T  T  T
  0.6555865098430880  0.9865921949059435  0.3905369214999999  T  T  T
  0.3187577731018109  0.3263489597220765  0.3838050289086251  T  T  T
  0.9885444971019947  0.9893749236624914  0.3881909738426898  T  T  T
  0.3199900850722295  0.9893137760928736  0.3879325693716407  T  T  T
  0.6395243869797838  0.3209558318041490  0.3909971902716271  T  T  T
  0.9927128761406320  0.6703429690370595  0.3870860538249301  T  T  T
  0.9935522962288379  0.3159471175070254  0.3867217351771455  T  T  T
  0.6601891130740544  0.6679455357625433  0.3858372256674720  T  T  T
