C    O    Pt
   1.00000000000000     
   7.2969551199999998  -4.2128990000000002   0.0000000000000000
   0.0000000000000000   8.4257980000000003   0.0000000000000000
   0.0000000000000000   0.0000000000000000  21.8796350000000004
C    O    Pt
1  2  36  
Selective dynamics
Direct
  0.7010560119719424  0.4366038102791941  0.4711487040107329  T  T  T
  0.9105056540260202  0.3816530301073240  0.4641770895659211  T  T  T
  0.6729194668458114  0.4634596928106162  0.5210372358332219  T  T  T
  0.9867550000000020  0.3285910000000030  0.0743760000000009  F  F  F
  0.3200879999999980  0.3285910000000030  0.0743760000000009  F  F  F
  0.6534219999999989  0.3285910000000030  0.0743760000000009  F  F  F
  0.9867550000000020  0.6619249999999970  0.0743760000000009  F  F  F
  0.3200879999999980  0.6619249999999970  0.0743760000000009  F  F  F
  0.6534219999999989  0.6619249999999970  0.0743760000000009  F  F  F
  0.3200879999999980  0.9952580000000000  0.0743760000000009  F  F  F
  0.6534219999999989  0.9952580000000000  0.0743760000000009  F  F  F
  0.9867550000000020  0.9952580000000000  0.0743760000000009  F  F  F
  0.2089769999999970  0.1063690000000010  0.1791860000000010  F  F  F
  0.5423109999999980  0.1063690000000010  0.1791860000000010  F  F  F
  0.8756440000000010  0.1063690000000010  0.1791860000000010  F  F  F
  0.2089769999999970  0.4397030000000020  0.1791860000000010  F  F  F
  0.5423109999999980  0.4397030000000020  0.1791860000000010  F  F  F
  0.8756440000000010  0.4397030000000020  0.1791860000000010  F  F  F
  0.2089769999999970  0.7730359999999979  0.1791860000000010  F  F  F
  0.5423109999999980  0.7730359999999979  0.1791860000000010  F  F  F
  0.8756440000000010  0.7730359999999979  0.1791860000000010  F  F  F
  0.0997203357424961  0.5484725864844255  0.2840974848313956  T  T  T
  0.4354351928174061  0.8793251004771984  0.2796244332409211  T  T  T
  0.7654018976920818  0.2202328238179592  0.2849059426331200  T  T  T
  0.0973085985418575  0.2222928055043875  0.2890229440467217  T  T  T
  0.4300715539126076  0.2178765534188994  0.2870097630409058  T  T  T
  0.1005133668463073  0.8814158657056576  0.2803793510009681  T  T  T
  0.7662405051489103  0.8778246006542081  0.2818294670154093  T  T  T
  0.4343443869625219  0.5452450641567888  0.2806871477289227  T  T  T
  0.7670525092294248  0.5538629588939883  0.2846059778065315  T  T  T
  0.3260859670668438  0.6595458932592367  0.3822497809795594  T  T  T
  0.6539997518566393  0.9926576594964591  0.3905786836446335  T  T  T
  0.3266106354793241  0.3258205081489858  0.3862068032927166  T  T  T
  0.9857911302899321  0.9886512290683497  0.3901363831774639  T  T  T
  0.3203822674167980  0.9932657538200096  0.3854841139586788  T  T  T
  0.6428186238337290  0.3283223651222709  0.3940475556046559  T  T  T
  0.9935002455867643  0.6693130596554849  0.3901920274162143  T  T  T
  0.9926585540456925  0.3220265655622344  0.3875596329274321  T  T  T
  0.6557654291717803  0.6620252010652018  0.3867474710827354  T  T  T
