C    O    Pt
   1.00000000000000     
   7.2969551199999998  -4.2128990000000002   0.0000000000000000
   0.0000000000000000   8.4257980000000003   0.0000000000000000
   0.0000000000000000   0.0000000000000000  21.8796350000000004
C    O    Pt
1  2  36  
Selective dynamics
Direct
  0.7007095167784185  0.4331404053894077  0.4757198278876763  T  T  T
  0.9038825689351686  0.3866889984665385  0.4608875175383563  T  T  T
  0.6725729716522875  0.4599962879208297  0.5256083597101653  T  T  T
  0.9867550000000020  0.3285910000000030  0.0743760000000009  F  F  F
  0.3200879999999980  0.3285910000000030  0.0743760000000009  F  F  F
  0.6534219999999989  0.3285910000000030  0.0743760000000009  F  F  F
  0.9867550000000020  0.6619249999999970  0.0743760000000009  F  F  F
  0.3200879999999980  0.6619249999999970  0.0743760000000009  F  F  F
  0.6534219999999989  0.6619249999999970  0.0743760000000009  F  F  F
  0.3200879999999980  0.9952580000000000  0.0743760000000009  F  F  F
  0.6534219999999989  0.9952580000000000  0.0743760000000009  F  F  F
  0.9867550000000020  0.9952580000000000  0.0743760000000009  F  F  F
  0.2089769999999970  0.1063690000000010  0.1791860000000010  F  F  F
  0.5423109999999980  0.1063690000000010  0.1791860000000010  F  F  F
  0.8756440000000010  0.1063690000000010  0.1791860000000010  F  F  F
  0.2089769999999970  0.4397030000000020  0.1791860000000010  F  F  F
  0.5423109999999980  0.4397030000000020  0.1791860000000010  F  F  F
  0.8756440000000010  0.4397030000000020  0.1791860000000010  F  F  F
  0.2089769999999970  0.7730359999999979  0.1791860000000010  F  F  F
  0.5423109999999980  0.7730359999999979  0.1791860000000010  F  F  F
  0.8756440000000010  0.7730359999999979  0.1791860000000010  F  F  F
  0.0972566168837193  0.5459942669278346  0.2862224481969244  T  T  T
  0.4314926330079359  0.8814413741798784  0.2866005872840551  T  T  T
  0.7643296456659974  0.2173637579986520  0.2858463763177251  T  T  T
  0.0990077637144075  0.2214533469864949  0.2882193976041604  T  T  T
  0.4302258355967903  0.2130543451956211  0.2863817811828443  T  T  T
  0.0937564796561416  0.8842818851148914  0.2780265957445768  T  T  T
  0.7650540058060384  0.8789171377401981  0.2832893857894510  T  T  T
  0.4345621167589936  0.5463976350657994  0.2816087743005815  T  T  T
  0.7614489999965548  0.5528159383385068  0.2827915292220237  T  T  T
  0.3270065148115885  0.6592910203216240  0.3898971386555904  T  T  T
  0.6508627691892294  0.9946462579682817  0.3822289958287484  T  T  T
  0.3243945870297756  0.3258105811909972  0.3855313651424832  T  T  T
  0.9902436685423187  0.9870630337640051  0.3873415279141976  T  T  T
  0.3189768341227101  0.9897892671045392  0.3875886806253350  T  T  T
  0.6434926453963616  0.3222957196136959  0.3929441661449763  T  T  T
  0.9966131277799901  0.6676747329722393  0.3909175893120413  T  T  T
  0.9893949227229331  0.3210983925533564  0.3879866366778248  T  T  T
  0.6515725201432734  0.6586613792040720  0.3880675223896746  T  T  T
