C    O    Pt
   1.00000000000000     
   7.2969551199999998  -4.2128990000000002   0.0000000000000000
   0.0000000000000000   8.4257980000000003   0.0000000000000000
   0.0000000000000000   0.0000000000000000  21.8796350000000004
C    O    Pt
1  2  36  
Selective dynamics
Direct
  0.7037915811465377  0.4353040918527618  0.4715415879126308  T  T  T
  0.9093305627302248  0.3825004182942328  0.4641289181710216  T  T  T
  0.6756550360204067  0.4621599743841838  0.5214301197351198  T  T  T
  0.9867550000000020  0.3285910000000030  0.0743760000000009  F  F  F
  0.3200879999999980  0.3285910000000030  0.0743760000000009  F  F  F
  0.6534219999999989  0.3285910000000030  0.0743760000000009  F  F  F
  0.9867550000000020  0.6619249999999970  0.0743760000000009  F  F  F
  0.3200879999999980  0.6619249999999970  0.0743760000000009  F  F  F
  0.6534219999999989  0.6619249999999970  0.0743760000000009  F  F  F
  0.3200879999999980  0.9952580000000000  0.0743760000000009  F  F  F
  0.6534219999999989  0.9952580000000000  0.0743760000000009  F  F  F
  0.9867550000000020  0.9952580000000000  0.0743760000000009  F  F  F
  0.2089769999999970  0.1063690000000010  0.1791860000000010  F  F  F
  0.5423109999999980  0.1063690000000010  0.1791860000000010  F  F  F
  0.8756440000000010  0.1063690000000010  0.1791860000000010  F  F  F
  0.2089769999999970  0.4397030000000020  0.1791860000000010  F  F  F
  0.5423109999999980  0.4397030000000020  0.1791860000000010  F  F  F
  0.8756440000000010  0.4397030000000020  0.1791860000000010  F  F  F
  0.2089769999999970  0.7730359999999979  0.1791860000000010  F  F  F
  0.5423109999999980  0.7730359999999979  0.1791860000000010  F  F  F
  0.8756440000000010  0.7730359999999979  0.1791860000000010  F  F  F
  0.0928820849711519  0.5437748253599325  0.2866180645489474  T  T  T
  0.4313767102294749  0.8821479384576015  0.2809652955862206  T  T  T
  0.7683543198769123  0.2144273892613973  0.2829305292187948  T  T  T
  0.0971782455148874  0.2156712344660572  0.2888952404157495  T  T  T
  0.4320156594673283  0.2188169164016155  0.2797578874460088  T  T  T
  0.0963116163724941  0.8808012186260462  0.2780182836609873  T  T  T
  0.7618646095589624  0.8832720732220584  0.2854093158189587  T  T  T
  0.4328168628087034  0.5510146481291713  0.2816721665343570  T  T  T
  0.7647171866108360  0.5528052752997332  0.2885281616973041  T  T  T
  0.3193542643037577  0.6568031189953605  0.3856593166237872  T  T  T
  0.6491516257023221  0.9888985972614543  0.3868577703815264  T  T  T
  0.3245526271779640  0.3257363241819319  0.3922480863172112  T  T  T
  0.9929059329585769  0.9910257413831650  0.3836213169178928  T  T  T
  0.3237058323200448  0.9916319254979528  0.3912579384933353  T  T  T
  0.6382574071354540  0.3281627955442370  0.3973962964447417  T  T  T
  0.9940791715452877  0.6696192008675684  0.3894396832321382  T  T  T
  0.9930265256150922  0.3160028769383914  0.3904943685095466  T  T  T
  0.6570219663625267  0.6628185807981181  0.3924576936423420  T  T  T
