C    O    Pt
   1.00000000000000     
   7.2969551199999998  -4.2128990000000002   0.0000000000000000
   0.0000000000000000   8.4257980000000003   0.0000000000000000
   0.0000000000000000   0.0000000000000000  21.8796350000000004
C    O    Pt
1  2  36  
Selective dynamics
Direct
  0.7006364663134755  0.4330797267720951  0.4760549810441828  T  T  T
  0.9069769560050481  0.3835536761149012  0.4696474718953980  T  T  T
  0.6724999211873445  0.4599356093035171  0.5259435128666717  T  T  T
  0.9867550000000020  0.3285910000000030  0.0743760000000009  F  F  F
  0.3200879999999980  0.3285910000000030  0.0743760000000009  F  F  F
  0.6534219999999989  0.3285910000000030  0.0743760000000009  F  F  F
  0.9867550000000020  0.6619249999999970  0.0743760000000009  F  F  F
  0.3200879999999980  0.6619249999999970  0.0743760000000009  F  F  F
  0.6534219999999989  0.6619249999999970  0.0743760000000009  F  F  F
  0.3200879999999980  0.9952580000000000  0.0743760000000009  F  F  F
  0.6534219999999989  0.9952580000000000  0.0743760000000009  F  F  F
  0.9867550000000020  0.9952580000000000  0.0743760000000009  F  F  F
  0.2089769999999970  0.1063690000000010  0.1791860000000010  F  F  F
  0.5423109999999980  0.1063690000000010  0.1791860000000010  F  F  F
  0.8756440000000010  0.1063690000000010  0.1791860000000010  F  F  F
  0.2089769999999970  0.4397030000000020  0.1791860000000010  F  F  F
  0.5423109999999980  0.4397030000000020  0.1791860000000010  F  F  F
  0.8756440000000010  0.4397030000000020  0.1791860000000010  F  F  F
  0.2089769999999970  0.7730359999999979  0.1791860000000010  F  F  F
  0.5423109999999980  0.7730359999999979  0.1791860000000010  F  F  F
  0.8756440000000010  0.7730359999999979  0.1791860000000010  F  F  F
  0.0974595550146544  0.5535180410251782  0.2838670688444144  T  T  T
  0.4285186262924304  0.8846216080832613  0.2855354459276792  T  T  T
  0.7638340231669790  0.2179036186052397  0.2863018659020495  T  T  T
  0.0994894226489849  0.2228301367121483  0.2821191941588967  T  T  T
  0.4363556537218398  0.2199824248534979  0.2849451264233990  T  T  T
  0.0958358842733295  0.8868469124099395  0.2852923197176939  T  T  T
  0.7628469854663448  0.8797524754144478  0.2835758783952322  T  T  T
  0.4351406099426017  0.5483983817405016  0.2830635617057439  T  T  T
  0.7627284438657899  0.5494617769982948  0.2825250386432985  T  T  T
  0.3196970980006745  0.6610134374262169  0.3827443504123377  T  T  T
  0.6527530540272869  0.9911551202600409  0.3884521031426069  T  T  T
  0.3248551062077099  0.3241299442005547  0.3899911788151446  T  T  T
  0.9894664880033850  0.9945542083402277  0.3917361708767200  T  T  T
  0.3222428386885635  0.9899572207863885  0.3927599482381501  T  T  T
  0.6409591647011694  0.3258408083636711  0.3960894323418283  T  T  T
  0.9988606067175970  0.6721159198362899  0.3854094819364954  T  T  T
  0.9962477374612277  0.3183473607229370  0.3880564276788407  T  T  T
  0.6573303901354217  0.6643236252948715  0.3914927532346387  T  T  T
