C    O    Pt
   1.00000000000000     
   7.2969551199999998  -4.2128990000000002   0.0000000000000000
   0.0000000000000000   8.4257980000000003   0.0000000000000000
   0.0000000000000000   0.0000000000000000  21.8796350000000004
C    O    Pt
1  2  36  
Selective dynamics
Direct
  0.6982684261684554  0.4348857782209594  0.4735157175457150  T  T  T
  0.9082701099100891  0.3834715125493919  0.4603965509001838  T  T  T
  0.6701318810423244  0.4617416607523814  0.5234042493682040  T  T  T
  0.9867550000000020  0.3285910000000030  0.0743760000000009  F  F  F
  0.3200879999999980  0.3285910000000030  0.0743760000000009  F  F  F
  0.6534219999999989  0.3285910000000030  0.0743760000000009  F  F  F
  0.9867550000000020  0.6619249999999970  0.0743760000000009  F  F  F
  0.3200879999999980  0.6619249999999970  0.0743760000000009  F  F  F
  0.6534219999999989  0.6619249999999970  0.0743760000000009  F  F  F
  0.3200879999999980  0.9952580000000000  0.0743760000000009  F  F  F
  0.6534219999999989  0.9952580000000000  0.0743760000000009  F  F  F
  0.9867550000000020  0.9952580000000000  0.0743760000000009  F  F  F
  0.2089769999999970  0.1063690000000010  0.1791860000000010  F  F  F
  0.5423109999999980  0.1063690000000010  0.1791860000000010  F  F  F
  0.8756440000000010  0.1063690000000010  0.1791860000000010  F  F  F
  0.2089769999999970  0.4397030000000020  0.1791860000000010  F  F  F
  0.5423109999999980  0.4397030000000020  0.1791860000000010  F  F  F
  0.8756440000000010  0.4397030000000020  0.1791860000000010  F  F  F
  0.2089769999999970  0.7730359999999979  0.1791860000000010  F  F  F
  0.5423109999999980  0.7730359999999979  0.1791860000000010  F  F  F
  0.8756440000000010  0.7730359999999979  0.1791860000000010  F  F  F
  0.0986812669772933  0.5456651620527251  0.2836739148610098  T  T  T
  0.4300060226178017  0.8821267634926302  0.2855323931785022  T  T  T
  0.7604539304896435  0.2186612741212066  0.2806013737039501  T  T  T
  0.0926129318175505  0.2203779465950209  0.2856285489841527  T  T  T
  0.4356958532793186  0.2176759350869204  0.2862987523097357  T  T  T
  0.0951031747232862  0.8818162923463958  0.2779988586773763  T  T  T
  0.7613222070296897  0.8859251123373945  0.2816850664663517  T  T  T
  0.4351446038965594  0.5478086520020381  0.2831227135616883  T  T  T
  0.7660713484328490  0.5463828109521014  0.2803350313168492  T  T  T
  0.3194438468246769  0.6595236882947081  0.3865479053975039  T  T  T
  0.6548095724938123  0.9897662973909067  0.3863924782039695  T  T  T
  0.3253217353710823  0.3280815251308323  0.3881154030122196  T  T  T
  0.9902105964406778  0.9928540419325206  0.3836111328003858  T  T  T
  0.3160882092033110  0.9904405368462647  0.3849695843022352  T  T  T
  0.6451907764773769  0.3213694205472701  0.3902597994557840  T  T  T
  0.9904020973798152  0.6651717192211469  0.3884408200007898  T  T  T
  0.9973010337267485  0.3178058882978261  0.3897137424331580  T  T  T
  0.6591178686826542  0.6675561034274312  0.3849671276882847  T  T  T
