C    O    Pt                            
   1.00000000000000     
     7.2969551199999998   -4.2128990000000002    0.0000000000000000
     0.0000000000000000    8.4257980000000003    0.0000000000000000
     0.0000000000000000    0.0000000000000000   21.8796350000000004
   C    O    Pt
     1     2    36
Selective dynamics
Direct
  0.6944423487478926  0.4311590317565360  0.4715275004185004   T   T   T
  0.9133368430335759  0.3849353579473437  0.4629852945812791   T   T   T
  0.6710372519690245  0.4624201392694733  0.5224978694646875   T   T   T
  0.9867550000000023  0.3285910000000031  0.0743760000000009   F   F   F
  0.3200879999999984  0.3285910000000030  0.0743760000000009   F   F   F
  0.6534219999999991  0.3285910000000031  0.0743760000000009   F   F   F
  0.9867550000000023  0.6619249999999965  0.0743760000000009   F   F   F
  0.3200879999999984  0.6619249999999965  0.0743760000000009   F   F   F
  0.6534219999999991  0.6619249999999965  0.0743760000000009   F   F   F
  0.3200879999999984  0.9952579999999998  0.0743760000000009   F   F   F
  0.6534219999999991  0.9952579999999998  0.0743760000000009   F   F   F
  0.9867550000000023  0.9952579999999996  0.0743760000000009   F   F   F
  0.2089769999999972  0.1063690000000008  0.1791860000000014   F   F   F
  0.5423109999999980  0.1063690000000008  0.1791860000000014   F   F   F
  0.8756440000000012  0.1063690000000008  0.1791860000000014   F   F   F
  0.2089769999999972  0.4397030000000015  0.1791860000000014   F   F   F
  0.5423109999999980  0.4397030000000015  0.1791860000000014   F   F   F
  0.8756440000000012  0.4397030000000015  0.1791860000000014   F   F   F
  0.2089769999999972  0.7730359999999976  0.1791860000000014   F   F   F
  0.5423109999999980  0.7730359999999976  0.1791860000000014   F   F   F
  0.8756440000000012  0.7730359999999977  0.1791860000000014   F   F   F
  0.0951407682943929  0.5508366414584485  0.2836800303055416   T   T   T
  0.4302431671558355  0.8819554822697542  0.2834797496006161   T   T   T
  0.7615411189685172  0.2154679371425860  0.2869299370873901   T   T   T
  0.0974475621682274  0.2210998666706761  0.2821436170100299   T   T   T
  0.4357611575141488  0.2185237936244777  0.2839931312940887   T   T   T
  0.0954235508158107  0.8847073399127289  0.2836734515395516   T   T   T
  0.7649484585685142  0.8855973301382768  0.2815876058016800   T   T   T
  0.4342078686409448  0.5529541960555878  0.2804591269987511   T   T   T
  0.7633471607914274  0.5509899582073490  0.2842200261710756   T   T   T
  0.3242377349608762  0.6589691684180238  0.3848660840775334   T   T   T
  0.6509226971181180  0.9855445900475613  0.3901661875150884   T   T   T
  0.3231343394204889  0.3232264956778309  0.3832068305730824   T   T   T
  0.9849485556195521  0.9893580791593196  0.3899157360658441   T   T   T
  0.3230590004493287  0.9924148051407085  0.3883627770574431   T   T   T
  0.6404576772454754  0.3190860659678929  0.3947210304784185   T   T   T
  0.9908678298319842  0.6645435545889964  0.3854368958945622   T   T   T
  0.9919488912774451  0.3234020024200973  0.3886987904388677   T   T   T
  0.6568336784230923  0.6630087699454388  0.3922794615064035   T   T   T
 
  0.00000000E+00  0.00000000E+00  0.00000000E+00
  0.00000000E+00  0.00000000E+00  0.00000000E+00
  0.00000000E+00  0.00000000E+00  0.00000000E+00
  0.00000000E+00  0.00000000E+00  0.00000000E+00
  0.00000000E+00  0.00000000E+00  0.00000000E+00
  0.00000000E+00  0.00000000E+00  0.00000000E+00
  0.00000000E+00  0.00000000E+00  0.00000000E+00
  0.00000000E+00  0.00000000E+00  0.00000000E+00
  0.00000000E+00  0.00000000E+00  0.00000000E+00
  0.00000000E+00  0.00000000E+00  0.00000000E+00
  0.00000000E+00  0.00000000E+00  0.00000000E+00
  0.00000000E+00  0.00000000E+00  0.00000000E+00
  0.00000000E+00  0.00000000E+00  0.00000000E+00
  0.00000000E+00  0.00000000E+00  0.00000000E+00
  0.00000000E+00  0.00000000E+00  0.00000000E+00
  0.00000000E+00  0.00000000E+00  0.00000000E+00
  0.00000000E+00  0.00000000E+00  0.00000000E+00
  0.00000000E+00  0.00000000E+00  0.00000000E+00
  0.00000000E+00  0.00000000E+00  0.00000000E+00
  0.00000000E+00  0.00000000E+00  0.00000000E+00
  0.00000000E+00  0.00000000E+00  0.00000000E+00
  0.00000000E+00  0.00000000E+00  0.00000000E+00
  0.00000000E+00  0.00000000E+00  0.00000000E+00
  0.00000000E+00  0.00000000E+00  0.00000000E+00
  0.00000000E+00  0.00000000E+00  0.00000000E+00
  0.00000000E+00  0.00000000E+00  0.00000000E+00
  0.00000000E+00  0.00000000E+00  0.00000000E+00
  0.00000000E+00  0.00000000E+00  0.00000000E+00
  0.00000000E+00  0.00000000E+00  0.00000000E+00
  0.00000000E+00  0.00000000E+00  0.00000000E+00
  0.00000000E+00  0.00000000E+00  0.00000000E+00
  0.00000000E+00  0.00000000E+00  0.00000000E+00
  0.00000000E+00  0.00000000E+00  0.00000000E+00
  0.00000000E+00  0.00000000E+00  0.00000000E+00
  0.00000000E+00  0.00000000E+00  0.00000000E+00
  0.00000000E+00  0.00000000E+00  0.00000000E+00
  0.00000000E+00  0.00000000E+00  0.00000000E+00
  0.00000000E+00  0.00000000E+00  0.00000000E+00
  0.00000000E+00  0.00000000E+00  0.00000000E+00
