C    O    Pt
   1.00000000000000     
   7.2969551199999998  -4.2128990000000002   0.0000000000000000
   0.0000000000000000   8.4257980000000003   0.0000000000000000
   0.0000000000000000   0.0000000000000000  21.8796350000000004
C    O    Pt
1  2  36  
Selective dynamics
Direct
  0.7012040979078996  0.4398054170550592  0.4788324844727935  T  T  T
  0.9046887725732295  0.3864495109759191  0.4668277944480128  T  T  T
  0.6730675527817686  0.4666612995864812  0.5287210162952825  T  T  T
  0.9867550000000020  0.3285910000000030  0.0743760000000009  F  F  F
  0.3200879999999980  0.3285910000000030  0.0743760000000009  F  F  F
  0.6534219999999989  0.3285910000000030  0.0743760000000009  F  F  F
  0.9867550000000020  0.6619249999999970  0.0743760000000009  F  F  F
  0.3200879999999980  0.6619249999999970  0.0743760000000009  F  F  F
  0.6534219999999989  0.6619249999999970  0.0743760000000009  F  F  F
  0.3200879999999980  0.9952580000000000  0.0743760000000009  F  F  F
  0.6534219999999989  0.9952580000000000  0.0743760000000009  F  F  F
  0.9867550000000020  0.9952580000000000  0.0743760000000009  F  F  F
  0.2089769999999970  0.1063690000000010  0.1791860000000010  F  F  F
  0.5423109999999980  0.1063690000000010  0.1791860000000010  F  F  F
  0.8756440000000010  0.1063690000000010  0.1791860000000010  F  F  F
  0.2089769999999970  0.4397030000000020  0.1791860000000010  F  F  F
  0.5423109999999980  0.4397030000000020  0.1791860000000010  F  F  F
  0.8756440000000010  0.4397030000000020  0.1791860000000010  F  F  F
  0.2089769999999970  0.7730359999999979  0.1791860000000010  F  F  F
  0.5423109999999980  0.7730359999999979  0.1791860000000010  F  F  F
  0.8756440000000010  0.7730359999999979  0.1791860000000010  F  F  F
  0.0926822938233469  0.5477182529908136  0.2816781750741077  T  T  T
  0.4329494227830948  0.8832811770065035  0.2800466208200150  T  T  T
  0.7661034166639644  0.2189284906984028  0.2804143868082973  T  T  T
  0.0981311051747773  0.2210065238050122  0.2800352205392567  T  T  T
  0.4328388293458052  0.2153541275850674  0.2805982324565021  T  T  T
  0.1021258679503894  0.8850214623811160  0.2776719164404626  T  T  T
  0.7598110170149956  0.8782484233551536  0.2788012730693029  T  T  T
  0.4325081428185774  0.5489371163584468  0.2823177079939408  T  T  T
  0.7626565610577787  0.5474149910870656  0.2803426022665408  T  T  T
  0.3216533586949454  0.6613157152003816  0.3818175476215228  T  T  T
  0.6516025212831266  0.9895526367870628  0.3835417571887310  T  T  T
  0.3252245154167678  0.3240275316900701  0.3895282703585585  T  T  T
  0.9899562428091412  0.9867918344403708  0.3901670099487494  T  T  T
  0.3173363923805242  0.9870774804561407  0.3879402368676107  T  T  T
  0.6453515613550168  0.3187805778748545  0.3936422952714744  T  T  T
  0.9947536926079776  0.6693008650622700  0.3852991513392298  T  T  T
  0.9976543075922774  0.3175905194310579  0.3900151412680498  T  T  T
  0.6601845021677712  0.6680508929849286  0.3905139921726937  T  T  T
