C    O    Pt
   1.00000000000000     
   7.2969551199999998  -4.2128990000000002   0.0000000000000000
   0.0000000000000000   8.4257980000000003   0.0000000000000000
   0.0000000000000000   0.0000000000000000  21.8796350000000004
C    O    Pt
1  2  36  
Selective dynamics
Direct
  0.6990781685984787  0.4384757563742072  0.4769664698944689  T  T  T
  0.9054246346742839  0.3858987521003986  0.4624394583422826  T  T  T
  0.6709416234723476  0.4653316389056292  0.5268550017169579  T  T  T
  0.9867550000000020  0.3285910000000030  0.0743760000000009  F  F  F
  0.3200879999999980  0.3285910000000030  0.0743760000000009  F  F  F
  0.6534219999999989  0.3285910000000030  0.0743760000000009  F  F  F
  0.9867550000000020  0.6619249999999970  0.0743760000000009  F  F  F
  0.3200879999999980  0.6619249999999970  0.0743760000000009  F  F  F
  0.6534219999999989  0.6619249999999970  0.0743760000000009  F  F  F
  0.3200879999999980  0.9952580000000000  0.0743760000000009  F  F  F
  0.6534219999999989  0.9952580000000000  0.0743760000000009  F  F  F
  0.9867550000000020  0.9952580000000000  0.0743760000000009  F  F  F
  0.2089769999999970  0.1063690000000010  0.1791860000000010  F  F  F
  0.5423109999999980  0.1063690000000010  0.1791860000000010  F  F  F
  0.8756440000000010  0.1063690000000010  0.1791860000000010  F  F  F
  0.2089769999999970  0.4397030000000020  0.1791860000000010  F  F  F
  0.5423109999999980  0.4397030000000020  0.1791860000000010  F  F  F
  0.8756440000000010  0.4397030000000020  0.1791860000000010  F  F  F
  0.2089769999999970  0.7730359999999979  0.1791860000000010  F  F  F
  0.5423109999999980  0.7730359999999979  0.1791860000000010  F  F  F
  0.8756440000000010  0.7730359999999979  0.1791860000000010  F  F  F
  0.1006112451226602  0.5471182225165060  0.2870990059500492  T  T  T
  0.4307121056846145  0.8820375508901449  0.2807792854648120  T  T  T
  0.7609300333701203  0.2138622500069814  0.2877650515106714  T  T  T
  0.0958964723011013  0.2209962186957776  0.2835349561295411  T  T  T
  0.4355451643807447  0.2137498097034838  0.2886398972307634  T  T  T
  0.1023736417881768  0.8791027219460653  0.2788048512668796  T  T  T
  0.7660395334800072  0.8867722684825121  0.2815047006401769  T  T  T
  0.4340991163990902  0.5531380526081457  0.2828117111762693  T  T  T
  0.7684319861160566  0.5450467099723595  0.2794229256007218  T  T  T
  0.3201765544861305  0.6586974001447338  0.3882987225165445  T  T  T
  0.6571602561455204  0.9851574698930426  0.3856125841099426  T  T  T
  0.3213828482032792  0.3266453169840824  0.3833525702468218  T  T  T
  0.9853695531881413  0.9894842808966952  0.3849241684458065  T  T  T
  0.3173428676736063  0.9924427629872193  0.3908684527437991  T  T  T
  0.6422312117200025  0.3253283716401269  0.3894057756433061  T  T  T
  0.9967694480428431  0.6718160675477377  0.3875849483249079  T  T  T
  0.9907035030338025  0.3227661829606952  0.3941030944065287  T  T  T
  0.6598055069590477  0.6641055879808047  0.3869277323147289  T  T  T
