C    O    Pt
   1.00000000000000     
   7.2969551199999998  -4.2128990000000002   0.0000000000000000
   0.0000000000000000   8.4257980000000003   0.0000000000000000
   0.0000000000000000   0.0000000000000000  21.8796350000000004
C    O    Pt
1  2  36  
Selective dynamics
Direct
  0.7005392517062466  0.4351127939451261  0.4724991753040744  T  T  T
  0.9056374839899266  0.3835948361968814  0.4692626710078701  T  T  T
  0.6724027065801156  0.4619686764765482  0.5223877071265633  T  T  T
  0.9867550000000020  0.3285910000000030  0.0743760000000009  F  F  F
  0.3200879999999980  0.3285910000000030  0.0743760000000009  F  F  F
  0.6534219999999989  0.3285910000000030  0.0743760000000009  F  F  F
  0.9867550000000020  0.6619249999999970  0.0743760000000009  F  F  F
  0.3200879999999980  0.6619249999999970  0.0743760000000009  F  F  F
  0.6534219999999989  0.6619249999999970  0.0743760000000009  F  F  F
  0.3200879999999980  0.9952580000000000  0.0743760000000009  F  F  F
  0.6534219999999989  0.9952580000000000  0.0743760000000009  F  F  F
  0.9867550000000020  0.9952580000000000  0.0743760000000009  F  F  F
  0.2089769999999970  0.1063690000000010  0.1791860000000010  F  F  F
  0.5423109999999980  0.1063690000000010  0.1791860000000010  F  F  F
  0.8756440000000010  0.1063690000000010  0.1791860000000010  F  F  F
  0.2089769999999970  0.4397030000000020  0.1791860000000010  F  F  F
  0.5423109999999980  0.4397030000000020  0.1791860000000010  F  F  F
  0.8756440000000010  0.4397030000000020  0.1791860000000010  F  F  F
  0.2089769999999970  0.7730359999999979  0.1791860000000010  F  F  F
  0.5423109999999980  0.7730359999999979  0.1791860000000010  F  F  F
  0.8756440000000010  0.7730359999999979  0.1791860000000010  F  F  F
  0.0971759903489068  0.5524565911652612  0.2818290146080975  T  T  T
  0.4315349304886817  0.8863048906392437  0.2872841421434160  T  T  T
  0.7640843581952506  0.2219272403371991  0.2843760299942368  T  T  T
  0.0974080652695569  0.2231135424245955  0.2818182972156125  T  T  T
  0.4342489913434074  0.2200883387252635  0.2814604120062009  T  T  T
  0.0970566885540398  0.8823219479688148  0.2847208326669686  T  T  T
  0.7629180517114991  0.8834873434785658  0.2843044896742649  T  T  T
  0.4327261025874354  0.5506484016223584  0.2816134163692829  T  T  T
  0.7692197703383458  0.5491222435931982  0.2875386533834989  T  T  T
  0.3265956609605939  0.6629788770626219  0.3838717530998214  T  T  T
  0.6493454822728972  0.9898906705449313  0.3902892528375486  T  T  T
  0.3208235830321217  0.3230645150412417  0.3895361715863844  T  T  T
  0.9910502094497569  0.9907237244304730  0.3844367925971821  T  T  T
  0.3197505835249874  0.9904576642051391  0.3857297942916419  T  T  T
  0.6380981462918055  0.3281639619276186  0.3888156671721736  T  T  T
  0.9964636875785278  0.6635238872674499  0.3893058617412986  T  T  T
  0.9939999641412970  0.3159520802963994  0.3906337019123290  T  T  T
  0.6562369702526667  0.6602400722915110  0.3905697308714065  T  T  T
