C    O    Pt
   1.00000000000000     
   7.2969551199999998  -4.2128990000000002   0.0000000000000000
   0.0000000000000000   8.4257980000000003   0.0000000000000000
   0.0000000000000000   0.0000000000000000  21.8796350000000004
C    O    Pt
1  2  36  
Selective dynamics
Direct
  0.6978110003436381  0.4316023186051914  0.4776085563119106  T  T  T
  0.9088775222543911  0.3839052466335255  0.4668781547920197  T  T  T
  0.6696744552175070  0.4584582011366134  0.5274970881343995  T  T  T
  0.9867550000000020  0.3285910000000030  0.0743760000000009  F  F  F
  0.3200879999999980  0.3285910000000030  0.0743760000000009  F  F  F
  0.6534219999999989  0.3285910000000030  0.0743760000000009  F  F  F
  0.9867550000000020  0.6619249999999970  0.0743760000000009  F  F  F
  0.3200879999999980  0.6619249999999970  0.0743760000000009  F  F  F
  0.6534219999999989  0.6619249999999970  0.0743760000000009  F  F  F
  0.3200879999999980  0.9952580000000000  0.0743760000000009  F  F  F
  0.6534219999999989  0.9952580000000000  0.0743760000000009  F  F  F
  0.9867550000000020  0.9952580000000000  0.0743760000000009  F  F  F
  0.2089769999999970  0.1063690000000010  0.1791860000000010  F  F  F
  0.5423109999999980  0.1063690000000010  0.1791860000000010  F  F  F
  0.8756440000000010  0.1063690000000010  0.1791860000000010  F  F  F
  0.2089769999999970  0.4397030000000020  0.1791860000000010  F  F  F
  0.5423109999999980  0.4397030000000020  0.1791860000000010  F  F  F
  0.8756440000000010  0.4397030000000020  0.1791860000000010  F  F  F
  0.2089769999999970  0.7730359999999979  0.1791860000000010  F  F  F
  0.5423109999999980  0.7730359999999979  0.1791860000000010  F  F  F
  0.8756440000000010  0.7730359999999979  0.1791860000000010  F  F  F
  0.0954176182795145  0.5504601116109344  0.2875491046150238  T  T  T
  0.4293798999415550  0.8849798892882553  0.2822852887102624  T  T  T
  0.7611157656503059  0.2183611904139074  0.2879476570733903  T  T  T
  0.0949350378141028  0.2153155073436024  0.2843875807645480  T  T  T
  0.4364087399320938  0.2157893980407669  0.2791875911290653  T  T  T
  0.0943022371461463  0.8857195666041582  0.2834711158994949  T  T  T
  0.7628539707186952  0.8872292672171014  0.2836107443840605  T  T  T
  0.4326686323200734  0.5479823167469485  0.2825640613465361  T  T  T
  0.7626382454515602  0.5478045003165940  0.2882654174768481  T  T  T
  0.3273888678788024  0.6574600623859062  0.3908203932367395  T  T  T
  0.6501633041542131  0.9864219834644550  0.3828002618813741  T  T  T
  0.3228961969415777  0.3276778300441579  0.3838636208647644  T  T  T
  0.9904082262651829  0.9921071034450860  0.3898995147706504  T  T  T
  0.3233636894119279  0.9888955798371231  0.3898180497702755  T  T  T
  0.6473542304514163  0.3227798638742858  0.3908274786343587  T  T  T
  0.9982846089823664  0.6628818213536632  0.3861810524304800  T  T  T
  0.9897387238838865  0.3219734290051508  0.3919377636875681  T  T  T
  0.6559693193476421  0.6607275962876610  0.3946661940938684  T  T  T
