C    O    Pt
   1.00000000000000     
   7.2969551199999998  -4.2128990000000002   0.0000000000000000
   0.0000000000000000   8.4257980000000003   0.0000000000000000
   0.0000000000000000   0.0000000000000000  21.8796350000000004
C    O    Pt
1  2  36  
Selective dynamics
Direct
  0.6986264739762278  0.4339619951935428  0.4748040672472387  T  T  T
  0.9094223992291031  0.3881406748064965  0.4694275216473736  T  T  T
  0.6704899288500967  0.4608178777249649  0.5246925990697276  T  T  T
  0.9867550000000020  0.3285910000000030  0.0743760000000009  F  F  F
  0.3200879999999980  0.3285910000000030  0.0743760000000009  F  F  F
  0.6534219999999989  0.3285910000000030  0.0743760000000009  F  F  F
  0.9867550000000020  0.6619249999999970  0.0743760000000009  F  F  F
  0.3200879999999980  0.6619249999999970  0.0743760000000009  F  F  F
  0.6534219999999989  0.6619249999999970  0.0743760000000009  F  F  F
  0.3200879999999980  0.9952580000000000  0.0743760000000009  F  F  F
  0.6534219999999989  0.9952580000000000  0.0743760000000009  F  F  F
  0.9867550000000020  0.9952580000000000  0.0743760000000009  F  F  F
  0.2089769999999970  0.1063690000000010  0.1791860000000010  F  F  F
  0.5423109999999980  0.1063690000000010  0.1791860000000010  F  F  F
  0.8756440000000010  0.1063690000000010  0.1791860000000010  F  F  F
  0.2089769999999970  0.4397030000000020  0.1791860000000010  F  F  F
  0.5423109999999980  0.4397030000000020  0.1791860000000010  F  F  F
  0.8756440000000010  0.4397030000000020  0.1791860000000010  F  F  F
  0.2089769999999970  0.7730359999999979  0.1791860000000010  F  F  F
  0.5423109999999980  0.7730359999999979  0.1791860000000010  F  F  F
  0.8756440000000010  0.7730359999999979  0.1791860000000010  F  F  F
  0.0989039985667444  0.5438246918270028  0.2820011913081589  T  T  T
  0.4293395009159088  0.8788586025623832  0.2829400219635611  T  T  T
  0.7652364226958234  0.2209427874184204  0.2819236069144740  T  T  T
  0.1002556680525300  0.2225803715032399  0.2861488667381695  T  T  T
  0.4337665564543420  0.2185013235911708  0.2803328344840214  T  T  T
  0.0933464280262222  0.8847780918368708  0.2809083592755162  T  T  T
  0.7680705257690179  0.8859674238319891  0.2843813993453007  T  T  T
  0.4305383103341559  0.5521846033175200  0.2814639090205638  T  T  T
  0.7693996880570446  0.5519955460039480  0.2836147340581321  T  T  T
  0.3278088001763508  0.6604287753803030  0.3835639531455131  T  T  T
  0.6531299018584504  0.9909055677480085  0.3853799046296953  T  T  T
  0.3229017693892459  0.3264616923455850  0.3896238370209139  T  T  T
  0.9935772157218842  0.9944159113617790  0.3921834797540391  T  T  T
  0.3239296461323263  0.9942032217643292  0.3874034022139942  T  T  T
  0.6450528431931313  0.3282752371322518  0.3881422044250634  T  T  T
  0.9930556061814120  0.6629574071027428  0.3840464423343166  T  T  T
  0.9932619792490022  0.3224186877888416  0.3919805282456697  T  T  T
  0.6522983691167128  0.6581548348202418  0.3938478084500999  T  T  T
