C    O    Pt                            
   1.00000000000000     
     7.2969551199999998   -4.2128990000000002    0.0000000000000000
     0.0000000000000000    8.4257980000000003    0.0000000000000000
     0.0000000000000000    0.0000000000000000   21.8796350000000004
   C    O    Pt
     1     2    36
Selective dynamics
Direct
  0.6968639622229064  0.4272965160938818  0.4761951182665641   T   T   T
  0.9082791855790530  0.3924541757266679  0.4622802998149461   T   T   T
  0.6747347978042173  0.4601032000168311  0.5249887867770257   T   T   T
  0.9867550000000023  0.3285910000000031  0.0743760000000009   F   F   F
  0.3200879999999984  0.3285910000000030  0.0743760000000009   F   F   F
  0.6534219999999991  0.3285910000000031  0.0743760000000009   F   F   F
  0.9867550000000023  0.6619249999999965  0.0743760000000009   F   F   F
  0.3200879999999984  0.6619249999999965  0.0743760000000009   F   F   F
  0.6534219999999991  0.6619249999999965  0.0743760000000009   F   F   F
  0.3200879999999984  0.9952579999999998  0.0743760000000009   F   F   F
  0.6534219999999991  0.9952579999999998  0.0743760000000009   F   F   F
  0.9867550000000023  0.9952579999999996  0.0743760000000009   F   F   F
  0.2089769999999972  0.1063690000000008  0.1791860000000014   F   F   F
  0.5423109999999980  0.1063690000000008  0.1791860000000014   F   F   F
  0.8756440000000012  0.1063690000000008  0.1791860000000014   F   F   F
  0.2089769999999972  0.4397030000000015  0.1791860000000014   F   F   F
  0.5423109999999980  0.4397030000000015  0.1791860000000014   F   F   F
  0.8756440000000012  0.4397030000000015  0.1791860000000014   F   F   F
  0.2089769999999972  0.7730359999999976  0.1791860000000014   F   F   F
  0.5423109999999980  0.7730359999999976  0.1791860000000014   F   F   F
  0.8756440000000012  0.7730359999999977  0.1791860000000014   F   F   F
  0.0969039548690536  0.5498916705272469  0.2809202183862471   T   T   T
  0.4313723228973731  0.8835358720375350  0.2819343465090727   T   T   T
  0.7642423418566023  0.2199681888882796  0.2817736499171694   T   T   T
  0.0966401743303313  0.2222840734562055  0.2871396206582519   T   T   T
  0.4345366162988930  0.2172564569165987  0.2862050990058051   T   T   T
  0.0962813144397181  0.8833814288275007  0.2802551442819360   T   T   T
  0.7638116971651860  0.8820680589792721  0.2828593007365880   T   T   T
  0.4311306880346600  0.5503007672470749  0.2808869415330459   T   T   T
  0.7669185029748667  0.5485980768258378  0.2837217950165380   T   T   T
  0.3226630288330384  0.6596506953682842  0.3867628417620272   T   T   T
  0.6504530584955647  0.9932215643751071  0.3828478433284825   T   T   T
  0.3201327661746476  0.3260351651746176  0.3909172197562194   T   T   T
  0.9889205059693017  0.9941627638844089  0.3877491535671072   T   T   T
  0.3178053209039059  0.9909924264112396  0.3844424715032025   T   T   T
  0.6407741156719953  0.3281382940778996  0.3948313028593440   T   T   T
  0.9984696524218883  0.6710810498557752  0.3863683037719763   T   T   T
  0.9932344480104786  0.3217788291036187  0.3896139839672748   T   T   T
  0.6577483796748503  0.6632964329101982  0.3851855091393440   T   T   T
 
  0.00000000E+00  0.00000000E+00  0.00000000E+00
  0.00000000E+00  0.00000000E+00  0.00000000E+00
  0.00000000E+00  0.00000000E+00  0.00000000E+00
  0.00000000E+00  0.00000000E+00  0.00000000E+00
  0.00000000E+00  0.00000000E+00  0.00000000E+00
  0.00000000E+00  0.00000000E+00  0.00000000E+00
  0.00000000E+00  0.00000000E+00  0.00000000E+00
  0.00000000E+00  0.00000000E+00  0.00000000E+00
  0.00000000E+00  0.00000000E+00  0.00000000E+00
  0.00000000E+00  0.00000000E+00  0.00000000E+00
  0.00000000E+00  0.00000000E+00  0.00000000E+00
  0.00000000E+00  0.00000000E+00  0.00000000E+00
  0.00000000E+00  0.00000000E+00  0.00000000E+00
  0.00000000E+00  0.00000000E+00  0.00000000E+00
  0.00000000E+00  0.00000000E+00  0.00000000E+00
  0.00000000E+00  0.00000000E+00  0.00000000E+00
  0.00000000E+00  0.00000000E+00  0.00000000E+00
  0.00000000E+00  0.00000000E+00  0.00000000E+00
  0.00000000E+00  0.00000000E+00  0.00000000E+00
  0.00000000E+00  0.00000000E+00  0.00000000E+00
  0.00000000E+00  0.00000000E+00  0.00000000E+00
  0.00000000E+00  0.00000000E+00  0.00000000E+00
  0.00000000E+00  0.00000000E+00  0.00000000E+00
  0.00000000E+00  0.00000000E+00  0.00000000E+00
  0.00000000E+00  0.00000000E+00  0.00000000E+00
  0.00000000E+00  0.00000000E+00  0.00000000E+00
  0.00000000E+00  0.00000000E+00  0.00000000E+00
  0.00000000E+00  0.00000000E+00  0.00000000E+00
  0.00000000E+00  0.00000000E+00  0.00000000E+00
  0.00000000E+00  0.00000000E+00  0.00000000E+00
  0.00000000E+00  0.00000000E+00  0.00000000E+00
  0.00000000E+00  0.00000000E+00  0.00000000E+00
  0.00000000E+00  0.00000000E+00  0.00000000E+00
  0.00000000E+00  0.00000000E+00  0.00000000E+00
  0.00000000E+00  0.00000000E+00  0.00000000E+00
  0.00000000E+00  0.00000000E+00  0.00000000E+00
  0.00000000E+00  0.00000000E+00  0.00000000E+00
  0.00000000E+00  0.00000000E+00  0.00000000E+00
  0.00000000E+00  0.00000000E+00  0.00000000E+00
