C    O    Pt
   1.00000000000000     
   7.2969551199999998  -4.2128990000000002   0.0000000000000000
   0.0000000000000000   8.4257980000000003   0.0000000000000000
   0.0000000000000000   0.0000000000000000  21.8796350000000004
C    O    Pt
1  2  36  
Selective dynamics
Direct
  0.7006072820597603  0.4366700858246368  0.4722052599743550  T  T  T
  0.9073134901779009  0.3878732679897534  0.4622918184767987  T  T  T
  0.6724707369336292  0.4635259683560589  0.5220937917968440  T  T  T
  0.9867550000000020  0.3285910000000030  0.0743760000000009  F  F  F
  0.3200879999999980  0.3285910000000030  0.0743760000000009  F  F  F
  0.6534219999999989  0.3285910000000030  0.0743760000000009  F  F  F
  0.9867550000000020  0.6619249999999970  0.0743760000000009  F  F  F
  0.3200879999999980  0.6619249999999970  0.0743760000000009  F  F  F
  0.6534219999999989  0.6619249999999970  0.0743760000000009  F  F  F
  0.3200879999999980  0.9952580000000000  0.0743760000000009  F  F  F
  0.6534219999999989  0.9952580000000000  0.0743760000000009  F  F  F
  0.9867550000000020  0.9952580000000000  0.0743760000000009  F  F  F
  0.2089769999999970  0.1063690000000010  0.1791860000000010  F  F  F
  0.5423109999999980  0.1063690000000010  0.1791860000000010  F  F  F
  0.8756440000000010  0.1063690000000010  0.1791860000000010  F  F  F
  0.2089769999999970  0.4397030000000020  0.1791860000000010  F  F  F
  0.5423109999999980  0.4397030000000020  0.1791860000000010  F  F  F
  0.8756440000000010  0.4397030000000020  0.1791860000000010  F  F  F
  0.2089769999999970  0.7730359999999979  0.1791860000000010  F  F  F
  0.5423109999999980  0.7730359999999979  0.1791860000000010  F  F  F
  0.8756440000000010  0.7730359999999979  0.1791860000000010  F  F  F
  0.1015497272927317  0.5480425569991406  0.2792435420917577  T  T  T
  0.4355462969339655  0.8866699748050985  0.2856295883156438  T  T  T
  0.7672154052128330  0.2161976001967631  0.2840953858790990  T  T  T
  0.0913206161113627  0.2174002005931024  0.2831318328125924  T  T  T
  0.4297022038337149  0.2131786269180309  0.2835968802685608  T  T  T
  0.0982948779908980  0.8794485834745821  0.2819620221069625  T  T  T
  0.7641563139365958  0.8797983886164185  0.2791595264057044  T  T  T
  0.4326168986031528  0.5513199038246973  0.2807737635935805  T  T  T
  0.7606415877590138  0.5490762167304964  0.2804009690422283  T  T  T
  0.3237523039164038  0.6661240309011706  0.3888066344566723  T  T  T
  0.6500420851325648  0.9859067990995991  0.3821996904282234  T  T  T
  0.3178599897137347  0.3201311801747502  0.3845901719124893  T  T  T
  0.9907328757348942  0.9939057354329256  0.3922142193722947  T  T  T
  0.3256297209882689  0.9966979739105273  0.3839193589487054  T  T  T
  0.6427760967407736  0.3220633393848015  0.3925915151263435  T  T  T
  0.9981536743955869  0.6670986651950704  0.3847394017643423  T  T  T
  0.9983440185262260  0.3181106660739554  0.3934263186320379  T  T  T
  0.6547057144909483  0.6639191355141256  0.3941222892793134  T  T  T
