C    O    Pt
   1.00000000000000     
   7.2969551199999998  -4.2128990000000002   0.0000000000000000
   0.0000000000000000   8.4257980000000003   0.0000000000000000
   0.0000000000000000   0.0000000000000000  21.8796350000000004
C    O    Pt
1  2  36  
Selective dynamics
Direct
  0.6999737911254744  0.4398566680956759  0.4712062030889936  T  T  T
  0.9058180827824402  0.3844827859224998  0.4676906025102829  T  T  T
  0.6718372459993434  0.4667125506270979  0.5210947349114826  T  T  T
  0.9867550000000020  0.3285910000000030  0.0743760000000009  F  F  F
  0.3200879999999980  0.3285910000000030  0.0743760000000009  F  F  F
  0.6534219999999989  0.3285910000000030  0.0743760000000009  F  F  F
  0.9867550000000020  0.6619249999999970  0.0743760000000009  F  F  F
  0.3200879999999980  0.6619249999999970  0.0743760000000009  F  F  F
  0.6534219999999989  0.6619249999999970  0.0743760000000009  F  F  F
  0.3200879999999980  0.9952580000000000  0.0743760000000009  F  F  F
  0.6534219999999989  0.9952580000000000  0.0743760000000009  F  F  F
  0.9867550000000020  0.9952580000000000  0.0743760000000009  F  F  F
  0.2089769999999970  0.1063690000000010  0.1791860000000010  F  F  F
  0.5423109999999980  0.1063690000000010  0.1791860000000010  F  F  F
  0.8756440000000010  0.1063690000000010  0.1791860000000010  F  F  F
  0.2089769999999970  0.4397030000000020  0.1791860000000010  F  F  F
  0.5423109999999980  0.4397030000000020  0.1791860000000010  F  F  F
  0.8756440000000010  0.4397030000000020  0.1791860000000010  F  F  F
  0.2089769999999970  0.7730359999999979  0.1791860000000010  F  F  F
  0.5423109999999980  0.7730359999999979  0.1791860000000010  F  F  F
  0.8756440000000010  0.7730359999999979  0.1791860000000010  F  F  F
  0.0937853112173188  0.5516071192466837  0.2818307777011517  T  T  T
  0.4360087536947560  0.8808249227363347  0.2809504339413740  T  T  T
  0.7602779206863215  0.2184393699923900  0.2835062166144024  T  T  T
  0.0973655414162098  0.2217426536690731  0.2863575037502721  T  T  T
  0.4379282677752377  0.2136560279509986  0.2809238343952810  T  T  T
  0.0984781385159677  0.8791101349308778  0.2779560724297370  T  T  T
  0.7628301619839791  0.8809955563700742  0.2842839404667124  T  T  T
  0.4324887671765995  0.5533634529419519  0.2878763049311137  T  T  T
  0.7620747321905648  0.5468735918195777  0.2855726213600307  T  T  T
  0.3243513921381389  0.6647841381170467  0.3892216124207594  T  T  T
  0.6540726369347983  0.9941856788680814  0.3859272687122831  T  T  T
  0.3187100530018268  0.3254267309683343  0.3918016891101715  T  T  T
  0.9920921584708533  0.9902983448594181  0.3894087238215974  T  T  T
  0.3161467285789501  0.9956989505177970  0.3867997860024846  T  T  T
  0.6440319067995546  0.3245784301735046  0.3951792844798130  T  T  T
  0.9930949794692681  0.6648354667649807  0.3827409411092825  T  T  T
  0.9987971324023597  0.3200474722270685  0.3923876253567290  T  T  T
  0.6549503253782827  0.6592378744408930  0.3854905882318214  T  T  T
