C    O    Pt
   1.00000000000000     
   7.2969551199999998  -4.2128990000000002   0.0000000000000000
   0.0000000000000000   8.4257980000000003   0.0000000000000000
   0.0000000000000000   0.0000000000000000  21.8796350000000004
C    O    Pt
1  2  36  
Selective dynamics
Direct
  0.6974134682892746  0.4361924507199264  0.4765668525916942  T  T  T
  0.9047034009903268  0.3874627777974555  0.4619806931687124  T  T  T
  0.6692769231631436  0.4630483332513484  0.5264553844141833  T  T  T
  0.9867550000000020  0.3285910000000030  0.0743760000000009  F  F  F
  0.3200879999999980  0.3285910000000030  0.0743760000000009  F  F  F
  0.6534219999999989  0.3285910000000030  0.0743760000000009  F  F  F
  0.9867550000000020  0.6619249999999970  0.0743760000000009  F  F  F
  0.3200879999999980  0.6619249999999970  0.0743760000000009  F  F  F
  0.6534219999999989  0.6619249999999970  0.0743760000000009  F  F  F
  0.3200879999999980  0.9952580000000000  0.0743760000000009  F  F  F
  0.6534219999999989  0.9952580000000000  0.0743760000000009  F  F  F
  0.9867550000000020  0.9952580000000000  0.0743760000000009  F  F  F
  0.2089769999999970  0.1063690000000010  0.1791860000000010  F  F  F
  0.5423109999999980  0.1063690000000010  0.1791860000000010  F  F  F
  0.8756440000000010  0.1063690000000010  0.1791860000000010  F  F  F
  0.2089769999999970  0.4397030000000020  0.1791860000000010  F  F  F
  0.5423109999999980  0.4397030000000020  0.1791860000000010  F  F  F
  0.8756440000000010  0.4397030000000020  0.1791860000000010  F  F  F
  0.2089769999999970  0.7730359999999979  0.1791860000000010  F  F  F
  0.5423109999999980  0.7730359999999979  0.1791860000000010  F  F  F
  0.8756440000000010  0.7730359999999979  0.1791860000000010  F  F  F
  0.0999858861763380  0.5460965437576665  0.2784330094210950  T  T  T
  0.4263948738043515  0.8860406150126248  0.2813487781993731  T  T  T
  0.7594991010061235  0.2175428113650476  0.2821017035552832  T  T  T
  0.0955666184692684  0.2136068301279634  0.2851175348144075  T  T  T
  0.4361641785210378  0.2197307182608153  0.2872465471154575  T  T  T
  0.0960305564781338  0.8834827639447466  0.2855451434238355  T  T  T
  0.7602530799183634  0.8850424546016220  0.2857267808090418  T  T  T
  0.4319421213348397  0.5519157646770910  0.2831929680454076  T  T  T
  0.7639632656200568  0.5540281124782310  0.2870421552046999  T  T  T
  0.3286922064645908  0.6565871563216433  0.3861841453711558  T  T  T
  0.6492372108252586  0.9880647105703599  0.3885628368550137  T  T  T
  0.3229160984152795  0.3245497040218466  0.3910435041285857  T  T  T
  0.9880387165994098  0.9919322599007698  0.3924128519604161  T  T  T
  0.3256263468711690  0.9944366229521442  0.3883751810826924  T  T  T
  0.6402662586959840  0.3227486345349962  0.3907303454601641  T  T  T
  0.9988712101295169  0.6645374219657176  0.3880070493775785  T  T  T
  0.9981275483059530  0.3250648227652894  0.3947848726228462  T  T  T
  0.6525395895899121  0.6654068332433268  0.3873851850407381  T  T  T
