C    O    Pt
   1.00000000000000     
   7.2969551199999998  -4.2128990000000002   0.0000000000000000
   0.0000000000000000   8.4257980000000003   0.0000000000000000
   0.0000000000000000   0.0000000000000000  21.8796350000000004
C    O    Pt
1  2  36  
Selective dynamics
Direct
  0.6986222903738649  0.4332408675544382  0.4714765493107286  T  T  T
  0.9040658333771459  0.3862402995640405  0.4677047805404760  T  T  T
  0.6704857452477339  0.4600967500858602  0.5213650811332176  T  T  T
  0.9867550000000020  0.3285910000000030  0.0743760000000009  F  F  F
  0.3200879999999980  0.3285910000000030  0.0743760000000009  F  F  F
  0.6534219999999989  0.3285910000000030  0.0743760000000009  F  F  F
  0.9867550000000020  0.6619249999999970  0.0743760000000009  F  F  F
  0.3200879999999980  0.6619249999999970  0.0743760000000009  F  F  F
  0.6534219999999989  0.6619249999999970  0.0743760000000009  F  F  F
  0.3200879999999980  0.9952580000000000  0.0743760000000009  F  F  F
  0.6534219999999989  0.9952580000000000  0.0743760000000009  F  F  F
  0.9867550000000020  0.9952580000000000  0.0743760000000009  F  F  F
  0.2089769999999970  0.1063690000000010  0.1791860000000010  F  F  F
  0.5423109999999980  0.1063690000000010  0.1791860000000010  F  F  F
  0.8756440000000010  0.1063690000000010  0.1791860000000010  F  F  F
  0.2089769999999970  0.4397030000000020  0.1791860000000010  F  F  F
  0.5423109999999980  0.4397030000000020  0.1791860000000010  F  F  F
  0.8756440000000010  0.4397030000000020  0.1791860000000010  F  F  F
  0.2089769999999970  0.7730359999999979  0.1791860000000010  F  F  F
  0.5423109999999980  0.7730359999999979  0.1791860000000010  F  F  F
  0.8756440000000010  0.7730359999999979  0.1791860000000010  F  F  F
  0.0936861065949919  0.5521898774001637  0.2849863557337142  T  T  T
  0.4313956768077573  0.8860149270136707  0.2815867857717809  T  T  T
  0.7678933236550567  0.2187961617476037  0.2869385894905128  T  T  T
  0.0912994041251784  0.2178134193933461  0.2818731465908090  T  T  T
  0.4294156193108009  0.2123637508372181  0.2869419667350597  T  T  T
  0.1005967767102218  0.8813115633528106  0.2853372960823325  T  T  T
  0.7631057528151493  0.8843186086364880  0.2788158936063095  T  T  T
  0.4350864693646908  0.5507403688710139  0.2832141159007091  T  T  T
  0.7611425276260504  0.5448194681810723  0.2829084202820568  T  T  T
  0.3221150206880910  0.6570499407144409  0.3910980517193011  T  T  T
  0.6535379796281457  0.9944890835988572  0.3859975357625925  T  T  T
  0.3249420899159197  0.3220279483975356  0.3919384209321279  T  T  T
  0.9848460295991629  0.9882678436499087  0.3885925435723949  T  T  T
  0.3209952664325893  0.9896405335375279  0.3845116138819148  T  T  T
  0.6450444226030700  0.3240764643025793  0.3948669960014077  T  T  T
  0.9908988242187521  0.6672747544435474  0.3843179986324683  T  T  T
  0.9891998310479436  0.3213365337369978  0.3958376876858645  T  T  T
  0.6549376069697749  0.6625482591084908  0.3903611579956127  T  T  T
