C    O    Pt
   1.00000000000000     
   7.2969551199999998  -4.2128990000000002   0.0000000000000000
   0.0000000000000000   8.4257980000000003   0.0000000000000000
   0.0000000000000000   0.0000000000000000  21.8796350000000004
C    O    Pt
1  2  36  
Selective dynamics
Direct
  0.7057670295919658  0.4315525324845502  0.4751557866859409  T  T  T
  0.9100734991909519  0.3879761572015602  0.4603650213429883  T  T  T
  0.6776304844658347  0.4584084150159722  0.5250443185084299  T  T  T
  0.9867550000000020  0.3285910000000030  0.0743760000000009  F  F  F
  0.3200879999999980  0.3285910000000030  0.0743760000000009  F  F  F
  0.6534219999999989  0.3285910000000030  0.0743760000000009  F  F  F
  0.9867550000000020  0.6619249999999970  0.0743760000000009  F  F  F
  0.3200879999999980  0.6619249999999970  0.0743760000000009  F  F  F
  0.6534219999999989  0.6619249999999970  0.0743760000000009  F  F  F
  0.3200879999999980  0.9952580000000000  0.0743760000000009  F  F  F
  0.6534219999999989  0.9952580000000000  0.0743760000000009  F  F  F
  0.9867550000000020  0.9952580000000000  0.0743760000000009  F  F  F
  0.2089769999999970  0.1063690000000010  0.1791860000000010  F  F  F
  0.5423109999999980  0.1063690000000010  0.1791860000000010  F  F  F
  0.8756440000000010  0.1063690000000010  0.1791860000000010  F  F  F
  0.2089769999999970  0.4397030000000020  0.1791860000000010  F  F  F
  0.5423109999999980  0.4397030000000020  0.1791860000000010  F  F  F
  0.8756440000000010  0.4397030000000020  0.1791860000000010  F  F  F
  0.2089769999999970  0.7730359999999979  0.1791860000000010  F  F  F
  0.5423109999999980  0.7730359999999979  0.1791860000000010  F  F  F
  0.8756440000000010  0.7730359999999979  0.1791860000000010  F  F  F
  0.0973120630803144  0.5491767168950618  0.2849907576145107  T  T  T
  0.4275852127209045  0.8804837566698545  0.2832188582084010  T  T  T
  0.7619084578769506  0.2169416082532028  0.2834300603054816  T  T  T
  0.0936380406492810  0.2226986706080722  0.2888176424405976  T  T  T
  0.4314669564831430  0.2192148590462220  0.2799724531602981  T  T  T
  0.0944612741858265  0.8783666085952404  0.2788672820446801  T  T  T
  0.7624469710535150  0.8851458440611809  0.2862097264174601  T  T  T
  0.4338269262917731  0.5522966019923020  0.2853223479457111  T  T  T
  0.7619851422210541  0.5455575006008325  0.2848200355901915  T  T  T
  0.3271903342284083  0.6634256827909147  0.3868418550855156  T  T  T
  0.6538142934880815  0.9937458681089548  0.3870205987723921  T  T  T
  0.3204870094121600  0.3210086660794900  0.3852242043470125  T  T  T
  0.9931997122599058  0.9942015048397459  0.3865571756022175  T  T  T
  0.3217861772107345  0.9940899384804417  0.3849956942360441  T  T  T
  0.6396662844265874  0.3212160414364834  0.3972558675387102  T  T  T
  0.9975058015857435  0.6717273965074320  0.3897054399482431  T  T  T
  0.9916313717162909  0.3236796546704790  0.3921625166854766  T  T  T
  0.6540978031149727  0.6611070566873959  0.3928336617059487  T  T  T
