C    O    Pt
   1.00000000000000     
   7.2969551199999998  -4.2128990000000002   0.0000000000000000
   0.0000000000000000   8.4257980000000003   0.0000000000000000
   0.0000000000000000   0.0000000000000000  21.8796350000000004
C    O    Pt
1  2  36  
Selective dynamics
Direct
  0.7052409886396532  0.4311394278581010  0.4766177981910722  T  T  T
  0.9018423537530660  0.3886818770924043  0.4618703776942737  T  T  T
  0.6771044435135222  0.4579953103895230  0.5265063300135612  T  T  T
  0.9867550000000020  0.3285910000000030  0.0743760000000009  F  F  F
  0.3200879999999980  0.3285910000000030  0.0743760000000009  F  F  F
  0.6534219999999989  0.3285910000000030  0.0743760000000009  F  F  F
  0.9867550000000020  0.6619249999999970  0.0743760000000009  F  F  F
  0.3200879999999980  0.6619249999999970  0.0743760000000009  F  F  F
  0.6534219999999989  0.6619249999999970  0.0743760000000009  F  F  F
  0.3200879999999980  0.9952580000000000  0.0743760000000009  F  F  F
  0.6534219999999989  0.9952580000000000  0.0743760000000009  F  F  F
  0.9867550000000020  0.9952580000000000  0.0743760000000009  F  F  F
  0.2089769999999970  0.1063690000000010  0.1791860000000010  F  F  F
  0.5423109999999980  0.1063690000000010  0.1791860000000010  F  F  F
  0.8756440000000010  0.1063690000000010  0.1791860000000010  F  F  F
  0.2089769999999970  0.4397030000000020  0.1791860000000010  F  F  F
  0.5423109999999980  0.4397030000000020  0.1791860000000010  F  F  F
  0.8756440000000010  0.4397030000000020  0.1791860000000010  F  F  F
  0.2089769999999970  0.7730359999999979  0.1791860000000010  F  F  F
  0.5423109999999980  0.7730359999999979  0.1791860000000010  F  F  F
  0.8756440000000010  0.7730359999999979  0.1791860000000010  F  F  F
  0.0996943352299611  0.5509777411950385  0.2870694885791585  T  T  T
  0.4301206273670276  0.8871703178602014  0.2804586722867896  T  T  T
  0.7610755925180919  0.2159640113439838  0.2889529692360371  T  T  T
  0.0914607425039152  0.2192795436035498  0.2846348752987186  T  T  T
  0.4351702359369344  0.2142929996672939  0.2843540794579062  T  T  T
  0.0962987020925953  0.8782554053979648  0.2788987214531702  T  T  T
  0.7670988756954444  0.8850722442926025  0.2820999610184684  T  T  T
  0.4304184828531714  0.5472621829144235  0.2820015563187664  T  T  T
  0.7602190255518042  0.5469537508561993  0.2833614588922705  T  T  T
  0.3189408522221587  0.6648899499372267  0.3856781361286523  T  T  T
  0.6492174331194535  0.9930656540858889  0.3907282052638834  T  T  T
  0.3187353156790744  0.3283516765424217  0.3901765020756350  T  T  T
  0.9888636869511312  0.9878935697436373  0.3853406562443077  T  T  T
  0.3241214033884794  0.9935558259502113  0.3924825169571509  T  T  T
  0.6454799244451768  0.3245974956072564  0.3882481949154769  T  T  T
  0.9911191549998807  0.6685914250428366  0.3900358864167472  T  T  T
  0.9951258629160490  0.3178158425838858  0.3895356721975733  T  T  T
  0.6597968974130620  0.6600290036915953  0.3939450585845065  T  T  T
