C    O    Pt
   1.00000000000000     
   7.2969551199999998  -4.2128990000000002   0.0000000000000000
   0.0000000000000000   8.4257980000000003   0.0000000000000000
   0.0000000000000000   0.0000000000000000  21.8796350000000004
C    O    Pt
1  2  36  
Selective dynamics
Direct
  0.6972036987743337  0.4387010124263496  0.4740791591577339  T  T  T
  0.9083701907452730  0.3847395776703945  0.4606274133094680  T  T  T
  0.6690671536482027  0.4655568949577716  0.5239676909802228  T  T  T
  0.9867550000000020  0.3285910000000030  0.0743760000000009  F  F  F
  0.3200879999999980  0.3285910000000030  0.0743760000000009  F  F  F
  0.6534219999999989  0.3285910000000030  0.0743760000000009  F  F  F
  0.9867550000000020  0.6619249999999970  0.0743760000000009  F  F  F
  0.3200879999999980  0.6619249999999970  0.0743760000000009  F  F  F
  0.6534219999999989  0.6619249999999970  0.0743760000000009  F  F  F
  0.3200879999999980  0.9952580000000000  0.0743760000000009  F  F  F
  0.6534219999999989  0.9952580000000000  0.0743760000000009  F  F  F
  0.9867550000000020  0.9952580000000000  0.0743760000000009  F  F  F
  0.2089769999999970  0.1063690000000010  0.1791860000000010  F  F  F
  0.5423109999999980  0.1063690000000010  0.1791860000000010  F  F  F
  0.8756440000000010  0.1063690000000010  0.1791860000000010  F  F  F
  0.2089769999999970  0.4397030000000020  0.1791860000000010  F  F  F
  0.5423109999999980  0.4397030000000020  0.1791860000000010  F  F  F
  0.8756440000000010  0.4397030000000020  0.1791860000000010  F  F  F
  0.2089769999999970  0.7730359999999979  0.1791860000000010  F  F  F
  0.5423109999999980  0.7730359999999979  0.1791860000000010  F  F  F
  0.8756440000000010  0.7730359999999979  0.1791860000000010  F  F  F
  0.0994280803583070  0.5471138267466237  0.2827599008983775  T  T  T
  0.4303785279311679  0.8871401080530112  0.2837644429809834  T  T  T
  0.7684327829466109  0.2182146203743861  0.2887338567462172  T  T  T
  0.0943911415693996  0.2220015020450657  0.2808433030394086  T  T  T
  0.4376359849642846  0.2199640153217539  0.2873782004582026  T  T  T
  0.1003738777285311  0.8843583125777983  0.2799586570151906  T  T  T
  0.7683657253995125  0.8853987683415072  0.2827967902526731  T  T  T
  0.4349054234670990  0.5494233631463370  0.2870601387787827  T  T  T
  0.7608925454004910  0.5513734038889200  0.2852634868838802  T  T  T
  0.3225331220251777  0.6566995339239788  0.3830627636417800  T  T  T
  0.6569453622139835  0.9864738809510455  0.3825715657849159  T  T  T
  0.3173460542269829  0.3250319916880833  0.3837407860368722  T  T  T
  0.9904226032625105  0.9922246515861081  0.3895414887553960  T  T  T
  0.3216378206556710  0.9965789235823265  0.3918748033874482  T  T  T
  0.6402141381039906  0.3208408723219452  0.3881400155054799  T  T  T
  0.9973730494163859  0.6688805444982816  0.3891480995652792  T  T  T
  0.9935864471005891  0.3160312851500530  0.3912322028115467  T  T  T
  0.6585702256962794  0.6650183651511367  0.3933226656424897  T  T  T
