C    O    Pt
   1.00000000000000     
   7.2969551199999998  -4.2128990000000002   0.0000000000000000
   0.0000000000000000   8.4257980000000003   0.0000000000000000
   0.0000000000000000   0.0000000000000000  21.8796350000000004
C    O    Pt
1  2  36  
Selective dynamics
Direct
  0.7024364687266557  0.4366965217061570  0.4716374488041009  T  T  T
  0.9044992005281657  0.3828428346466431  0.4624520700690794  T  T  T
  0.6742999236005246  0.4635524042375790  0.5215259806265898  T  T  T
  0.9867550000000020  0.3285910000000030  0.0743760000000009  F  F  F
  0.3200879999999980  0.3285910000000030  0.0743760000000009  F  F  F
  0.6534219999999989  0.3285910000000030  0.0743760000000009  F  F  F
  0.9867550000000020  0.6619249999999970  0.0743760000000009  F  F  F
  0.3200879999999980  0.6619249999999970  0.0743760000000009  F  F  F
  0.6534219999999989  0.6619249999999970  0.0743760000000009  F  F  F
  0.3200879999999980  0.9952580000000000  0.0743760000000009  F  F  F
  0.6534219999999989  0.9952580000000000  0.0743760000000009  F  F  F
  0.9867550000000020  0.9952580000000000  0.0743760000000009  F  F  F
  0.2089769999999970  0.1063690000000010  0.1791860000000010  F  F  F
  0.5423109999999980  0.1063690000000010  0.1791860000000010  F  F  F
  0.8756440000000010  0.1063690000000010  0.1791860000000010  F  F  F
  0.2089769999999970  0.4397030000000020  0.1791860000000010  F  F  F
  0.5423109999999980  0.4397030000000020  0.1791860000000010  F  F  F
  0.8756440000000010  0.4397030000000020  0.1791860000000010  F  F  F
  0.2089769999999970  0.7730359999999979  0.1791860000000010  F  F  F
  0.5423109999999980  0.7730359999999979  0.1791860000000010  F  F  F
  0.8756440000000010  0.7730359999999979  0.1791860000000010  F  F  F
  0.0963626722277567  0.5443659761325381  0.2846823222852179  T  T  T
  0.4280095987791897  0.8862960991980803  0.2820233921217959  T  T  T
  0.7597508407940802  0.2132834805657346  0.2796897240941521  T  T  T
  0.0982109061372990  0.2148669105537285  0.2860210923744947  T  T  T
  0.4321351111568029  0.2164017256900736  0.2825256299806498  T  T  T
  0.0955900498168876  0.8873302275362134  0.2809825411530926  T  T  T
  0.7631246906966330  0.8810953864613790  0.2862621133406498  T  T  T
  0.4315138271907747  0.5530400022784855  0.2875286108657898  T  T  T
  0.7665324245117727  0.5468337030030748  0.2801815529330969  T  T  T
  0.3222395254251365  0.6631842668749495  0.3857093762891473  T  T  T
  0.6478423047265207  0.9896861002600120  0.3870002614703007  T  T  T
  0.3193933194826792  0.3262985749630642  0.3909323740226262  T  T  T
  0.9903919239981926  0.9885220141613975  0.3848242199239652  T  T  T
  0.3223154212883698  0.9906963006865470  0.3863828383890841  T  T  T
  0.6391510374611969  0.3220557795183991  0.3912728145851392  T  T  T
  0.9986373892539269  0.6682162463037992  0.3908088925221961  T  T  T
  0.9897681872416042  0.3171117986648862  0.3954013810197781  T  T  T
  0.6518554770456422  0.6615616134516974  0.3877619628352236  T  T  T
