C    O    Pt
   1.00000000000000     
   7.2969551199999998  -4.2128990000000002   0.0000000000000000
   0.0000000000000000   8.4257980000000003   0.0000000000000000
   0.0000000000000000   0.0000000000000000  21.8796350000000004
C    O    Pt
1  2  36  
Selective dynamics
Direct
  0.7067831689339537  0.4369100131173498  0.4760981546111368  T  T  T
  0.9052136928014979  0.3837535539347831  0.4616389564241055  T  T  T
  0.6786466238078226  0.4637658956487719  0.5259866864336258  T  T  T
  0.9867550000000020  0.3285910000000030  0.0743760000000009  F  F  F
  0.3200879999999980  0.3285910000000030  0.0743760000000009  F  F  F
  0.6534219999999989  0.3285910000000030  0.0743760000000009  F  F  F
  0.9867550000000020  0.6619249999999970  0.0743760000000009  F  F  F
  0.3200879999999980  0.6619249999999970  0.0743760000000009  F  F  F
  0.6534219999999989  0.6619249999999970  0.0743760000000009  F  F  F
  0.3200879999999980  0.9952580000000000  0.0743760000000009  F  F  F
  0.6534219999999989  0.9952580000000000  0.0743760000000009  F  F  F
  0.9867550000000020  0.9952580000000000  0.0743760000000009  F  F  F
  0.2089769999999970  0.1063690000000010  0.1791860000000010  F  F  F
  0.5423109999999980  0.1063690000000010  0.1791860000000010  F  F  F
  0.8756440000000010  0.1063690000000010  0.1791860000000010  F  F  F
  0.2089769999999970  0.4397030000000020  0.1791860000000010  F  F  F
  0.5423109999999980  0.4397030000000020  0.1791860000000010  F  F  F
  0.8756440000000010  0.4397030000000020  0.1791860000000010  F  F  F
  0.2089769999999970  0.7730359999999979  0.1791860000000010  F  F  F
  0.5423109999999980  0.7730359999999979  0.1791860000000010  F  F  F
  0.8756440000000010  0.7730359999999979  0.1791860000000010  F  F  F
  0.0938965061722143  0.5470598492998701  0.2812133730398035  T  T  T
  0.4356874243051002  0.8842588978778551  0.2817164549379422  T  T  T
  0.7595333802974320  0.2124393163269752  0.2815641306265018  T  T  T
  0.0923143068925530  0.2208068911333103  0.2799009175224050  T  T  T
  0.4321933207121134  0.2175089708239423  0.2788654936921613  T  T  T
  0.0965429549343444  0.8834464489786166  0.2861364012056447  T  T  T
  0.7613558158111216  0.8867524337603048  0.2813897643301546  T  T  T
  0.4366429466813668  0.5527033418675279  0.2876170603470287  T  T  T
  0.7601381871021246  0.5488154439598925  0.2856673234797655  T  T  T
  0.3222778389831416  0.6660697157460879  0.3852153132380472  T  T  T
  0.6524114609180142  0.9869792747038848  0.3879476976555278  T  T  T
  0.3196325793383955  0.3213623515292491  0.3849156620673347  T  T  T
  0.9863409972361284  0.9877402344249691  0.3841372616185769  T  T  T
  0.3238227074265768  0.9925833028338091  0.3882650100770232  T  T  T
  0.6415670063528027  0.3229813345212182  0.3922796737069530  T  T  T
  0.9966363967698144  0.6663872770186189  0.3828562592176599  T  T  T
  0.9973163305776640  0.3164780286746020  0.3935377270053746  T  T  T
  0.6598350668895355  0.6609689838694813  0.3861090314436654  T  T  T
