C    O    Pt
   1.00000000000000     
   7.2969551199999998  -4.2128990000000002   0.0000000000000000
   0.0000000000000000   8.4257980000000003   0.0000000000000000
   0.0000000000000000   0.0000000000000000  21.8796350000000004
C    O    Pt
1  2  36  
Selective dynamics
Direct
  0.6998044932304850  0.4380856000673046  0.4770668498173897  T  T  T
  0.9018649240829224  0.3800091061983704  0.4641179843209187  T  T  T
  0.6716679481043539  0.4649414825987266  0.5269553816398788  T  T  T
  0.9867550000000020  0.3285910000000030  0.0743760000000009  F  F  F
  0.3200879999999980  0.3285910000000030  0.0743760000000009  F  F  F
  0.6534219999999989  0.3285910000000030  0.0743760000000009  F  F  F
  0.9867550000000020  0.6619249999999970  0.0743760000000009  F  F  F
  0.3200879999999980  0.6619249999999970  0.0743760000000009  F  F  F
  0.6534219999999989  0.6619249999999970  0.0743760000000009  F  F  F
  0.3200879999999980  0.9952580000000000  0.0743760000000009  F  F  F
  0.6534219999999989  0.9952580000000000  0.0743760000000009  F  F  F
  0.9867550000000020  0.9952580000000000  0.0743760000000009  F  F  F
  0.2089769999999970  0.1063690000000010  0.1791860000000010  F  F  F
  0.5423109999999980  0.1063690000000010  0.1791860000000010  F  F  F
  0.8756440000000010  0.1063690000000010  0.1791860000000010  F  F  F
  0.2089769999999970  0.4397030000000020  0.1791860000000010  F  F  F
  0.5423109999999980  0.4397030000000020  0.1791860000000010  F  F  F
  0.8756440000000010  0.4397030000000020  0.1791860000000010  F  F  F
  0.2089769999999970  0.7730359999999979  0.1791860000000010  F  F  F
  0.5423109999999980  0.7730359999999979  0.1791860000000010  F  F  F
  0.8756440000000010  0.7730359999999979  0.1791860000000010  F  F  F
  0.0962989042401932  0.5496446150061274  0.2817155444184525  T  T  T
  0.4332996803907222  0.8822686839126607  0.2853681586444934  T  T  T
  0.7600558903973146  0.2213856646053677  0.2827651341766791  T  T  T
  0.0924460766582973  0.2146272038619738  0.2873693745710975  T  T  T
  0.4348167762406148  0.2211895860207043  0.2811152639216619  T  T  T
  0.1024966746367160  0.8808996532816640  0.2794154936540426  T  T  T
  0.7597266727616938  0.8872241659986155  0.2790565114466906  T  T  T
  0.4332661112218951  0.5542916694172803  0.2802699902721624  T  T  T
  0.7664384692561782  0.5493767720745010  0.2815452802033848  T  T  T
  0.3211943805440842  0.6647936601316179  0.3857689900833269  T  T  T
  0.6556601015318843  0.9935824560937129  0.3851989032244635  T  T  T
  0.3258980763489767  0.3283873317645820  0.3867084794348069  T  T  T
  0.9858020448982762  0.9888647197099650  0.3885668168282401  T  T  T
  0.3182086105531058  0.9887856489650291  0.3866561360208192  T  T  T
  0.6432784886440776  0.3187652282740750  0.3910534572580677  T  T  T
  0.9994416817335556  0.6717683238189330  0.3897062107037049  T  T  T
  0.9990115857136019  0.3182887529287035  0.3897783867327658  T  T  T
  0.6544860827665356  0.6622290754220277  0.3908145227476645  T  T  T
