C    O    Pt
   1.00000000000000     
   7.2969551199999998  -4.2128990000000002   0.0000000000000000
   0.0000000000000000   8.4257980000000003   0.0000000000000000
   0.0000000000000000   0.0000000000000000  21.8796350000000004
C    O    Pt
1  2  36  
Selective dynamics
Direct
  0.7041516500308879  0.4379402912603323  0.4764763570027273  T  T  T
  0.9086614044407246  0.3881225570822220  0.4680199445849945  T  T  T
  0.6760151049047568  0.4647961737917544  0.5263648888252163  T  T  T
  0.9867550000000020  0.3285910000000030  0.0743760000000009  F  F  F
  0.3200879999999980  0.3285910000000030  0.0743760000000009  F  F  F
  0.6534219999999989  0.3285910000000030  0.0743760000000009  F  F  F
  0.9867550000000020  0.6619249999999970  0.0743760000000009  F  F  F
  0.3200879999999980  0.6619249999999970  0.0743760000000009  F  F  F
  0.6534219999999989  0.6619249999999970  0.0743760000000009  F  F  F
  0.3200879999999980  0.9952580000000000  0.0743760000000009  F  F  F
  0.6534219999999989  0.9952580000000000  0.0743760000000009  F  F  F
  0.9867550000000020  0.9952580000000000  0.0743760000000009  F  F  F
  0.2089769999999970  0.1063690000000010  0.1791860000000010  F  F  F
  0.5423109999999980  0.1063690000000010  0.1791860000000010  F  F  F
  0.8756440000000010  0.1063690000000010  0.1791860000000010  F  F  F
  0.2089769999999970  0.4397030000000020  0.1791860000000010  F  F  F
  0.5423109999999980  0.4397030000000020  0.1791860000000010  F  F  F
  0.8756440000000010  0.4397030000000020  0.1791860000000010  F  F  F
  0.2089769999999970  0.7730359999999979  0.1791860000000010  F  F  F
  0.5423109999999980  0.7730359999999979  0.1791860000000010  F  F  F
  0.8756440000000010  0.7730359999999979  0.1791860000000010  F  F  F
  0.0951423924626320  0.5503642761430755  0.2838988558837873  T  T  T
  0.4336021829216806  0.8852566968466922  0.2774164262386566  T  T  T
  0.7621580175970680  0.2127037631388905  0.2863498449146617  T  T  T
  0.0976939527650694  0.2189324018235567  0.2872000840053485  T  T  T
  0.4299083279051502  0.2220892924160528  0.2884238617632591  T  T  T
  0.0939226231174309  0.8852633681996736  0.2825390035362917  T  T  T
  0.7660048489709241  0.8833866180633527  0.2801188883541739  T  T  T
  0.4331348010974140  0.5516009154786267  0.2788807323971133  T  T  T
  0.7676161405974786  0.5449379941717062  0.2805389218074814  T  T  T
  0.3218342376253863  0.6637384148538278  0.3870404757142962  T  T  T
  0.6538412109315115  0.9936300040576755  0.3905515894357294  T  T  T
  0.3222065642859819  0.3262614460365112  0.3903404348937821  T  T  T
  0.9850586760289167  0.9887294747618055  0.3835388357261914  T  T  T
  0.3256570193535231  0.9943108220542404  0.3927420308731909  T  T  T
  0.6427813981994226  0.3219851511744851  0.3968442527492091  T  T  T
  0.9982119179034923  0.6667591940575408  0.3916812385356032  T  T  T
  0.9945024583161786  0.3192126295136839  0.3897089336796445  T  T  T
  0.6553471877126001  0.6648970562857708  0.3902784736109525  T  T  T
