C    O    Pt
   1.00000000000000     
   7.2969551199999998  -4.2128990000000002   0.0000000000000000
   0.0000000000000000   8.4257980000000003   0.0000000000000000
   0.0000000000000000   0.0000000000000000  21.8796350000000004
C    O    Pt
1  2  36  
Selective dynamics
Direct
  0.7012211738048159  0.4317393656088099  0.4758871167674902  T  T  T
  0.9074564356146583  0.3842322911809438  0.4675337466747433  T  T  T
  0.6730846286786848  0.4585952481402319  0.5257756485899793  T  T  T
  0.9867550000000020  0.3285910000000030  0.0743760000000009  F  F  F
  0.3200879999999980  0.3285910000000030  0.0743760000000009  F  F  F
  0.6534219999999989  0.3285910000000030  0.0743760000000009  F  F  F
  0.9867550000000020  0.6619249999999970  0.0743760000000009  F  F  F
  0.3200879999999980  0.6619249999999970  0.0743760000000009  F  F  F
  0.6534219999999989  0.6619249999999970  0.0743760000000009  F  F  F
  0.3200879999999980  0.9952580000000000  0.0743760000000009  F  F  F
  0.6534219999999989  0.9952580000000000  0.0743760000000009  F  F  F
  0.9867550000000020  0.9952580000000000  0.0743760000000009  F  F  F
  0.2089769999999970  0.1063690000000010  0.1791860000000010  F  F  F
  0.5423109999999980  0.1063690000000010  0.1791860000000010  F  F  F
  0.8756440000000010  0.1063690000000010  0.1791860000000010  F  F  F
  0.2089769999999970  0.4397030000000020  0.1791860000000010  F  F  F
  0.5423109999999980  0.4397030000000020  0.1791860000000010  F  F  F
  0.8756440000000010  0.4397030000000020  0.1791860000000010  F  F  F
  0.2089769999999970  0.7730359999999979  0.1791860000000010  F  F  F
  0.5423109999999980  0.7730359999999979  0.1791860000000010  F  F  F
  0.8756440000000010  0.7730359999999979  0.1791860000000010  F  F  F
  0.0960320927566530  0.5485129502868652  0.2865608365047601  T  T  T
  0.4338667809124539  0.8844203946974420  0.2826234313930343  T  T  T
  0.7615018930859700  0.2130908907139444  0.2796826563739994  T  T  T
  0.0928796282175432  0.2172251741480463  0.2827160307004780  T  T  T
  0.4380152874667398  0.2217212034224590  0.2873641188196729  T  T  T
  0.0994110894522453  0.8826824552124055  0.2834456868500453  T  T  T
  0.7645619724436328  0.8830154863942021  0.2869671705855644  T  T  T
  0.4303659730255622  0.5493371755875859  0.2828336276929395  T  T  T
  0.7613759229113182  0.5479938248614789  0.2793378896678819  T  T  T
  0.3285093150893567  0.6566446514693368  0.3861106779563356  T  T  T
  0.6517203239185274  0.9858517883368562  0.3904302715894097  T  T  T
  0.3214956469495858  0.3279823997284392  0.3859299338453364  T  T  T
  0.9866664642174157  0.9951119311123875  0.3900065175946396  T  T  T
  0.3179323290252827  0.9923546174857044  0.3881729305850578  T  T  T
  0.6443940016893194  0.3228850490498610  0.3944819615163065  T  T  T
  0.9928045068138073  0.6654525954868603  0.3866621327731233  T  T  T
  0.9913893982831558  0.3220120680572586  0.3918989121434879  T  T  T
  0.6604146444470265  0.6637245804441391  0.3916792144882647  T  T  T
