C    O    Pt
   1.00000000000000     
   7.2969551199999998  -4.2128990000000002   0.0000000000000000
   0.0000000000000000   8.4257980000000003   0.0000000000000000
   0.0000000000000000   0.0000000000000000  21.8796350000000004
C    O    Pt
1  2  36  
Selective dynamics
Direct
  0.7031906789822731  0.4376407248039065  0.4745194434684272  T  T  T
  0.9088219362094004  0.3799826996559160  0.4605788238695301  T  T  T
  0.6750541338561420  0.4644966073353285  0.5244079752909162  T  T  T
  0.9867550000000020  0.3285910000000030  0.0743760000000009  F  F  F
  0.3200879999999980  0.3285910000000030  0.0743760000000009  F  F  F
  0.6534219999999989  0.3285910000000030  0.0743760000000009  F  F  F
  0.9867550000000020  0.6619249999999970  0.0743760000000009  F  F  F
  0.3200879999999980  0.6619249999999970  0.0743760000000009  F  F  F
  0.6534219999999989  0.6619249999999970  0.0743760000000009  F  F  F
  0.3200879999999980  0.9952580000000000  0.0743760000000009  F  F  F
  0.6534219999999989  0.9952580000000000  0.0743760000000009  F  F  F
  0.9867550000000020  0.9952580000000000  0.0743760000000009  F  F  F
  0.2089769999999970  0.1063690000000010  0.1791860000000010  F  F  F
  0.5423109999999980  0.1063690000000010  0.1791860000000010  F  F  F
  0.8756440000000010  0.1063690000000010  0.1791860000000010  F  F  F
  0.2089769999999970  0.4397030000000020  0.1791860000000010  F  F  F
  0.5423109999999980  0.4397030000000020  0.1791860000000010  F  F  F
  0.8756440000000010  0.4397030000000020  0.1791860000000010  F  F  F
  0.2089769999999970  0.7730359999999979  0.1791860000000010  F  F  F
  0.5423109999999980  0.7730359999999979  0.1791860000000010  F  F  F
  0.8756440000000010  0.7730359999999979  0.1791860000000010  F  F  F
  0.0978762911393039  0.5480752781649700  0.2821299406996683  T  T  T
  0.4268424513938787  0.8797411893200840  0.2811822930598211  T  T  T
  0.7630645523390980  0.2129307979334852  0.2862494333988549  T  T  T
  0.0919416142951398  0.2181312321694517  0.2824612836751239  T  T  T
  0.4307537151110608  0.2165849724967997  0.2866899423596655  T  T  T
  0.1018619647223549  0.8796656085590623  0.2865336973008697  T  T  T
  0.7665993069954152  0.8788311234607390  0.2842025041007379  T  T  T
  0.4347502165657854  0.5500394841960120  0.2788639856169755  T  T  T
  0.7623281216729698  0.5462106807345810  0.2793661076764823  T  T  T
  0.3260730245414619  0.6645413711081539  0.3826036654911405  T  T  T
  0.6548233123831515  0.9852738420215028  0.3907706443452253  T  T  T
  0.3219526244102342  0.3200287397774171  0.3921603935295123  T  T  T
  0.9930226097798416  0.9875196318321784  0.3912690288581514  T  T  T
  0.3178492898488393  0.9888779532659507  0.3907355985146376  T  T  T
  0.6426034426103223  0.3190997361800857  0.3880186846561750  T  T  T
  0.9983870447889432  0.6692707690662875  0.3860456122527866  T  T  T
  0.9964512640430850  0.3171534192426705  0.3949403837495851  T  T  T
  0.6518150215710290  0.6604856856492284  0.3894542971768978  T  T  T
