C    O    Pt
   1.00000000000000     
   7.2969551199999998  -4.2128990000000002   0.0000000000000000
   0.0000000000000000   8.4257980000000003   0.0000000000000000
   0.0000000000000000   0.0000000000000000  21.8796350000000004
C    O    Pt
1  2  36  
Selective dynamics
Direct
  0.7038104016214798  0.4312362770429041  0.4728457238517795  T  T  T
  0.9026992063064579  0.3897125891883683  0.4685137864854947  T  T  T
  0.6756738564953487  0.4580921595743261  0.5227342556742685  T  T  T
  0.9867550000000020  0.3285910000000030  0.0743760000000009  F  F  F
  0.3200879999999980  0.3285910000000030  0.0743760000000009  F  F  F
  0.6534219999999989  0.3285910000000030  0.0743760000000009  F  F  F
  0.9867550000000020  0.6619249999999970  0.0743760000000009  F  F  F
  0.3200879999999980  0.6619249999999970  0.0743760000000009  F  F  F
  0.6534219999999989  0.6619249999999970  0.0743760000000009  F  F  F
  0.3200879999999980  0.9952580000000000  0.0743760000000009  F  F  F
  0.6534219999999989  0.9952580000000000  0.0743760000000009  F  F  F
  0.9867550000000020  0.9952580000000000  0.0743760000000009  F  F  F
  0.2089769999999970  0.1063690000000010  0.1791860000000010  F  F  F
  0.5423109999999980  0.1063690000000010  0.1791860000000010  F  F  F
  0.8756440000000010  0.1063690000000010  0.1791860000000010  F  F  F
  0.2089769999999970  0.4397030000000020  0.1791860000000010  F  F  F
  0.5423109999999980  0.4397030000000020  0.1791860000000010  F  F  F
  0.8756440000000010  0.4397030000000020  0.1791860000000010  F  F  F
  0.2089769999999970  0.7730359999999979  0.1791860000000010  F  F  F
  0.5423109999999980  0.7730359999999979  0.1791860000000010  F  F  F
  0.8756440000000010  0.7730359999999979  0.1791860000000010  F  F  F
  0.0939033170511952  0.5486258246381108  0.2816477358110818  T  T  T
  0.4279417659244748  0.8800818725812055  0.2842993791665406  T  T  T
  0.7638990793918302  0.2127816639788681  0.2848469412369483  T  T  T
  0.0988499021715072  0.2157054831322250  0.2823370766932768  T  T  T
  0.4369515873860390  0.2207718642033839  0.2850014412355758  T  T  T
  0.0956874950786075  0.8871985483154129  0.2778609720031093  T  T  T
  0.7631517345134583  0.8819971905324911  0.2781438927351794  T  T  T
  0.4333361604077844  0.5467160724994722  0.2825264320449257  T  T  T
  0.7674610584678186  0.5536835382754457  0.2847173952339859  T  T  T
  0.3205469328051289  0.6655436517505881  0.3886695071098770  T  T  T
  0.6527990508451442  0.9857391798476146  0.3845766887355035  T  T  T
  0.3198103185367012  0.3231889776499715  0.3846685660642506  T  T  T
  0.9919251137720912  0.9908963506941108  0.3838350217619063  T  T  T
  0.3249889446881861  0.9910019457401236  0.3870756839074298  T  T  T
  0.6442854515510411  0.3279064327811292  0.3916156248320772  T  T  T
  0.9940085043847791  0.6630248588458153  0.3862567711847088  T  T  T
  0.9946434501450500  0.3218808898636960  0.3954723566082050  T  T  T
  0.6511732203406106  0.6658276194190853  0.3910794735110895  T  T  T
