C    O    Pt
   1.00000000000000     
   7.2969551199999998  -4.2128990000000002   0.0000000000000000
   0.0000000000000000   8.4257980000000003   0.0000000000000000
   0.0000000000000000   0.0000000000000000  21.8796350000000004
C    O    Pt
1  2  36  
Selective dynamics
Direct
  0.7002616911540096  0.4387156292736055  0.4797281125619578  T  T  T
  0.9035769120561368  0.3886390571631870  0.4681585584185479  T  T  T
  0.6721251460278785  0.4655715118050275  0.5296166443844468  T  T  T
  0.9867550000000020  0.3285910000000030  0.0743760000000009  F  F  F
  0.3200879999999980  0.3285910000000030  0.0743760000000009  F  F  F
  0.6534219999999989  0.3285910000000030  0.0743760000000009  F  F  F
  0.9867550000000020  0.6619249999999970  0.0743760000000009  F  F  F
  0.3200879999999980  0.6619249999999970  0.0743760000000009  F  F  F
  0.6534219999999989  0.6619249999999970  0.0743760000000009  F  F  F
  0.3200879999999980  0.9952580000000000  0.0743760000000009  F  F  F
  0.6534219999999989  0.9952580000000000  0.0743760000000009  F  F  F
  0.9867550000000020  0.9952580000000000  0.0743760000000009  F  F  F
  0.2089769999999970  0.1063690000000010  0.1791860000000010  F  F  F
  0.5423109999999980  0.1063690000000010  0.1791860000000010  F  F  F
  0.8756440000000010  0.1063690000000010  0.1791860000000010  F  F  F
  0.2089769999999970  0.4397030000000020  0.1791860000000010  F  F  F
  0.5423109999999980  0.4397030000000020  0.1791860000000010  F  F  F
  0.8756440000000010  0.4397030000000020  0.1791860000000010  F  F  F
  0.2089769999999970  0.7730359999999979  0.1791860000000010  F  F  F
  0.5423109999999980  0.7730359999999979  0.1791860000000010  F  F  F
  0.8756440000000010  0.7730359999999979  0.1791860000000010  F  F  F
  0.1014243018338009  0.5521375463431553  0.2801770429177818  T  T  T
  0.4289082020536167  0.8838931894532321  0.2795916369658584  T  T  T
  0.7655193044462288  0.2145029236214737  0.2795553363438265  T  T  T
  0.0965000681365199  0.2208946604066274  0.2881751424317604  T  T  T
  0.4338098345611622  0.2189940420454731  0.2849741107355036  T  T  T
  0.1012008712081955  0.8844414228029686  0.2798922498539920  T  T  T
  0.7643187567733165  0.8862071733103584  0.2818930903167850  T  T  T
  0.4365776372916710  0.5478926112745445  0.2851659654950997  T  T  T
  0.7661832881241968  0.5532792383368610  0.2858303423994521  T  T  T
  0.3205079993246436  0.6601163998690481  0.3822251777118743  T  T  T
  0.6554855297838460  0.9860214351941198  0.3814538864305486  T  T  T
  0.3200886497302536  0.3263836768793107  0.3866707742704388  T  T  T
  0.9887436224539171  0.9937970124580776  0.3889817220655701  T  T  T
  0.3187028336784268  0.9935766112772096  0.3885698506128694  T  T  T
  0.6386447384081892  0.3185599838601214  0.3917920558479131  T  T  T
  0.9959089646695624  0.6709161158978644  0.3908983285307282  T  T  T
  0.9967835440243765  0.3163201454663258  0.3934679175235086  T  T  T
  0.6579786965672713  0.6679926673736354  0.3848804903181286  T  T  T
