C    O    Pt
   1.00000000000000     
   7.2969551199999998  -4.2128990000000002   0.0000000000000000
   0.0000000000000000   8.4257980000000003   0.0000000000000000
   0.0000000000000000   0.0000000000000000  21.8796350000000004
C    O    Pt
1  2  36  
Selective dynamics
Direct
  0.6989939002321059  0.4323841471745204  0.4715676362941759  T  T  T
  0.9104940258657865  0.3826271375188617  0.4607264746394369  T  T  T
  0.6708573551059749  0.4592400297059424  0.5214561681166648  T  T  T
  0.9867550000000020  0.3285910000000030  0.0743760000000009  F  F  F
  0.3200879999999980  0.3285910000000030  0.0743760000000009  F  F  F
  0.6534219999999989  0.3285910000000030  0.0743760000000009  F  F  F
  0.9867550000000020  0.6619249999999970  0.0743760000000009  F  F  F
  0.3200879999999980  0.6619249999999970  0.0743760000000009  F  F  F
  0.6534219999999989  0.6619249999999970  0.0743760000000009  F  F  F
  0.3200879999999980  0.9952580000000000  0.0743760000000009  F  F  F
  0.6534219999999989  0.9952580000000000  0.0743760000000009  F  F  F
  0.9867550000000020  0.9952580000000000  0.0743760000000009  F  F  F
  0.2089769999999970  0.1063690000000010  0.1791860000000010  F  F  F
  0.5423109999999980  0.1063690000000010  0.1791860000000010  F  F  F
  0.8756440000000010  0.1063690000000010  0.1791860000000010  F  F  F
  0.2089769999999970  0.4397030000000020  0.1791860000000010  F  F  F
  0.5423109999999980  0.4397030000000020  0.1791860000000010  F  F  F
  0.8756440000000010  0.4397030000000020  0.1791860000000010  F  F  F
  0.2089769999999970  0.7730359999999979  0.1791860000000010  F  F  F
  0.5423109999999980  0.7730359999999979  0.1791860000000010  F  F  F
  0.8756440000000010  0.7730359999999979  0.1791860000000010  F  F  F
  0.0989212979260198  0.5447459466395100  0.2842328548723973  T  T  T
  0.4316692206227980  0.8835961577338566  0.2856930785468045  T  T  T
  0.7634011262185101  0.2197050930960019  0.2824636717065425  T  T  T
  0.0942533249059761  0.2232858856954134  0.2886364806276169  T  T  T
  0.4298716037221425  0.2215820591179247  0.2800157862914474  T  T  T
  0.0992204503391344  0.8854870129223471  0.2826434267158952  T  T  T
  0.7629362477556115  0.8833337456838262  0.2786594236943684  T  T  T
  0.4278051831066269  0.5476700392799633  0.2862630653442204  T  T  T
  0.7693449983532534  0.5530850693111378  0.2857363823111140  T  T  T
  0.3268911704509663  0.6598799048999548  0.3911459599488374  T  T  T
  0.6525498381552621  0.9865383317392706  0.3893227271037670  T  T  T
  0.3172213738265738  0.3246339466497442  0.3886430902485971  T  T  T
  0.9870069988420076  0.9950614603833690  0.3829299637982396  T  T  T
  0.3217353919962678  0.9880622402865178  0.3917116314840077  T  T  T
  0.6473709996510160  0.3239253661520954  0.3943431455219343  T  T  T
  0.9972228661523452  0.6689826050348703  0.3838011043105380  T  T  T
  0.9954169184649655  0.3163588575670215  0.3921916415356714  T  T  T
  0.6567310393982004  0.6637942405065471  0.3893933981119696  T  T  T
